**INP GENERATOR - CRYSTALLON 
**FILENAME = example
*NODE,NSET=Nexample
 1, -10, -10, 0
 2, -10, -10, 4
 3, -10, -10, 8
 4, -10, -10, 12
 5, -10, -10, 16
 6, -10, -10, 20
 7, -10, -6, 4
 8, -10, -6, 0
 9, -10, -6, 8
 10, -10, -6, 12
 11, -10, -6, 16
 12, -10, -6, 20
 13, -10, -2, 0
 14, -10, -2, 4
 15, -10, -2, 8
 16, -10, -2, 12
 17, -10, -2, 16
 18, -10, -2, 20
 19, -10, 2, 0
 20, -10, 2, 4
 21, -10, 2, 8
 22, -10, 2, 12
 23, -10, 2, 16
 24, -10, 2, 20
 25, -10, 6, 0
 26, -10, 6, 8
 27, -10, 6, 12
 28, -10, 6, 16
 29, -10, 6, 20
 30, -10, 6, 4
 31, -10, 10, 0
 32, -10, 10, 4
 33, -10, 10, 8
 34, -10, 10, 12
 35, -10, 10, 16
 36, -10, 10, 20
 37, -8, -8, 2
 38, -8, -8, 6
 39, -8, -8, 10
 40, -8, -8, 14
 41, -8, -8, 18
 42, -8, -4, 2
 43, -8, -4, 6
 44, -8, -4, 10
 45, -8, -4, 14
 46, -8, -4, 18
 47, -8, 0, 2
 48, -8, 0, 6
 49, -8, 0, 10
 50, -8, 0, 14
 51, -8, 0, 18
 52, -8, 4, 2
 53, -8, 4, 6
 54, -8, 4, 10
 55, -8, 4, 14
 56, -8, 4, 18
 57, -8, 8, 2
 58, -8, 8, 6
 59, -8, 8, 10
 60, -8, 8, 14
 61, -8, 8, 18
 62, -6, -10, 4
 63, -6, -6, 4
 64, -6, -2, 4
 65, -6, 2, 4
 66, -6, 6, 4
 67, -6, 10, 4
 68, -6, -10, 0
 69, -6, -10, 8
 70, -6, -10, 12
 71, -6, -10, 16
 72, -6, -10, 20
 73, -6, -6, 0
 74, -6, -6, 8
 75, -6, -6, 12
 76, -6, -6, 16
 77, -6, -6, 20
 78, -6, -2, 0
 79, -6, -2, 8
 80, -6, -2, 12
 81, -6, -2, 16
 82, -6, -2, 20
 83, -6, 2, 0
 84, -6, 2, 8
 85, -6, 2, 12
 86, -6, 2, 16
 87, -6, 2, 20
 88, -6, 6, 0
 89, -6, 6, 8
 90, -6, 6, 12
 91, -6, 6, 16
 92, -6, 6, 20
 93, -6, 10, 0
 94, -6, 10, 8
 95, -6, 10, 12
 96, -6, 10, 16
 97, -6, 10, 20
 98, -4, -8, 2
 99, -4, -8, 6
 100, -4, -8, 10
 101, -4, -8, 14
 102, -4, -8, 18
 103, -4, -4, 2
 104, -4, -4, 6
 105, -4, -4, 10
 106, -4, -4, 14
 107, -4, -4, 18
 108, -4, 0, 2
 109, -4, 0, 6
 110, -4, 0, 10
 111, -4, 0, 14
 112, -4, 0, 18
 113, -4, 4, 2
 114, -4, 4, 6
 115, -4, 4, 10
 116, -4, 4, 14
 117, -4, 4, 18
 118, -4, 8, 2
 119, -4, 8, 6
 120, -4, 8, 10
 121, -4, 8, 14
 122, -4, 8, 18
 123, -2, -10, 0
 124, -2, -10, 4
 125, -2, -10, 8
 126, -2, -10, 12
 127, -2, -10, 16
 128, -2, -10, 20
 129, -2, -6, 4
 130, -2, -6, 0
 131, -2, -6, 8
 132, -2, -6, 12
 133, -2, -6, 16
 134, -2, -6, 20
 135, -2, -2, 0
 136, -2, -2, 4
 137, -2, -2, 8
 138, -2, -2, 12
 139, -2, -2, 16
 140, -2, -2, 20
 141, -2, 2, 0
 142, -2, 2, 4
 143, -2, 2, 8
 144, -2, 2, 12
 145, -2, 2, 16
 146, -2, 2, 20
 147, -2, 6, 0
 148, -2, 6, 8
 149, -2, 6, 12
 150, -2, 6, 16
 151, -2, 6, 20
 152, -2, 6, 4
 153, -2, 10, 0
 154, -2, 10, 4
 155, -2, 10, 8
 156, -2, 10, 12
 157, -2, 10, 16
 158, -2, 10, 20
 159, 0, -8, 2
 160, 0, -8, 6
 161, 0, -8, 10
 162, 0, -8, 14
 163, 0, -8, 18
 164, 0, -4, 2
 165, 0, -4, 6
 166, 0, -4, 10
 167, 0, -4, 14
 168, 0, -4, 18
 169, 0, 0, 2
 170, 0, 0, 6
 171, 0, 0, 10
 172, 0, 0, 14
 173, 0, 0, 18
 174, 0, 4, 2
 175, 0, 4, 6
 176, 0, 4, 10
 177, 0, 4, 14
 178, 0, 4, 18
 179, 0, 8, 2
 180, 0, 8, 6
 181, 0, 8, 10
 182, 0, 8, 14
 183, 0, 8, 18
 184, 2, -10, 0
 185, 2, -10, 4
 186, 2, -10, 8
 187, 2, -10, 12
 188, 2, -10, 16
 189, 2, -10, 20
 190, 2, -6, 4
 191, 2, -6, 0
 192, 2, -6, 8
 193, 2, -6, 12
 194, 2, -6, 16
 195, 2, -6, 20
 196, 2, -2, 0
 197, 2, -2, 4
 198, 2, -2, 8
 199, 2, -2, 12
 200, 2, -2, 16
 201, 2, -2, 20
 202, 2, 2, 0
 203, 2, 2, 4
 204, 2, 2, 8
 205, 2, 2, 12
 206, 2, 2, 16
 207, 2, 2, 20
 208, 2, 6, 0
 209, 2, 6, 8
 210, 2, 6, 12
 211, 2, 6, 16
 212, 2, 6, 20
 213, 2, 6, 4
 214, 2, 10, 0
 215, 2, 10, 4
 216, 2, 10, 8
 217, 2, 10, 12
 218, 2, 10, 16
 219, 2, 10, 20
 220, 4, -8, 2
 221, 4, -8, 6
 222, 4, -8, 10
 223, 4, -8, 14
 224, 4, -8, 18
 225, 4, -4, 2
 226, 4, -4, 6
 227, 4, -4, 10
 228, 4, -4, 14
 229, 4, -4, 18
 230, 4, 0, 2
 231, 4, 0, 6
 232, 4, 0, 10
 233, 4, 0, 14
 234, 4, 0, 18
 235, 4, 4, 2
 236, 4, 4, 6
 237, 4, 4, 10
 238, 4, 4, 14
 239, 4, 4, 18
 240, 4, 8, 2
 241, 4, 8, 6
 242, 4, 8, 10
 243, 4, 8, 14
 244, 4, 8, 18
 245, 6, -10, 0
 246, 6, -10, 8
 247, 6, -10, 12
 248, 6, -10, 16
 249, 6, -10, 20
 250, 6, -6, 0
 251, 6, -6, 8
 252, 6, -6, 12
 253, 6, -6, 16
 254, 6, -6, 20
 255, 6, -2, 0
 256, 6, -2, 8
 257, 6, -2, 12
 258, 6, -2, 16
 259, 6, -2, 20
 260, 6, 2, 0
 261, 6, 2, 8
 262, 6, 2, 12
 263, 6, 2, 16
 264, 6, 2, 20
 265, 6, 6, 0
 266, 6, 6, 8
 267, 6, 6, 12
 268, 6, 6, 16
 269, 6, 6, 20
 270, 6, 10, 0
 271, 6, 10, 8
 272, 6, 10, 12
 273, 6, 10, 16
 274, 6, 10, 20
 275, 6, -10, 4
 276, 6, -6, 4
 277, 6, -2, 4
 278, 6, 2, 4
 279, 6, 6, 4
 280, 6, 10, 4
 281, 8, -8, 2
 282, 8, -8, 6
 283, 8, -8, 10
 284, 8, -8, 14
 285, 8, -8, 18
 286, 8, -4, 2
 287, 8, -4, 6
 288, 8, -4, 10
 289, 8, -4, 14
 290, 8, -4, 18
 291, 8, 0, 2
 292, 8, 0, 6
 293, 8, 0, 10
 294, 8, 0, 14
 295, 8, 0, 18
 296, 8, 4, 2
 297, 8, 4, 6
 298, 8, 4, 10
 299, 8, 4, 14
 300, 8, 4, 18
 301, 8, 8, 2
 302, 8, 8, 6
 303, 8, 8, 10
 304, 8, 8, 14
 305, 8, 8, 18
 306, 10, -10, 0
 307, 10, -10, 4
 308, 10, -10, 8
 309, 10, -10, 12
 310, 10, -10, 16
 311, 10, -10, 20
 312, 10, -6, 4
 313, 10, -6, 0
 314, 10, -6, 8
 315, 10, -6, 12
 316, 10, -6, 16
 317, 10, -6, 20
 318, 10, -2, 0
 319, 10, -2, 4
 320, 10, -2, 8
 321, 10, -2, 12
 322, 10, -2, 16
 323, 10, -2, 20
 324, 10, 2, 0
 325, 10, 2, 4
 326, 10, 2, 8
 327, 10, 2, 12
 328, 10, 2, 16
 329, 10, 2, 20
 330, 10, 6, 0
 331, 10, 6, 8
 332, 10, 6, 12
 333, 10, 6, 16
 334, 10, 6, 20
 335, 10, 6, 4
 336, 10, 10, 0
 337, 10, 10, 4
 338, 10, 10, 8
 339, 10, 10, 12
 340, 10, 10, 16
 341, 10, 10, 20
 342, -7, -9, 1
 343, -9, -7, 3
 344, -7, -7, 3
 345, -7, -9, 3
 346, -9, -9, 3
 347, -9, -7, 1
 348, -7, -7, 1
 349, -9, -9, 1
 350, -7, -5, 1
 351, -9, -3, 3
 352, -7, -3, 3
 353, -7, -5, 3
 354, -9, -5, 3
 355, -9, -3, 1
 356, -7, -3, 1
 357, -9, -5, 1
 358, -7, -1, 1
 359, -9, 1, 3
 360, -7, 1, 3
 361, -7, -1, 3
 362, -9, -1, 3
 363, -9, 1, 1
 364, -7, 1, 1
 365, -9, -1, 1
 366, -7, 3, 1
 367, -9, 5, 3
 368, -7, 5, 3
 369, -7, 3, 3
 370, -9, 3, 3
 371, -9, 5, 1
 372, -7, 5, 1
 373, -9, 3, 1
 374, -7, 7, 1
 375, -9, 9, 3
 376, -7, 9, 3
 377, -7, 7, 3
 378, -9, 7, 3
 379, -9, 9, 1
 380, -7, 9, 1
 381, -9, 7, 1
 382, -3, -9, 1
 383, -5, -7, 3
 384, -3, -7, 3
 385, -3, -9, 3
 386, -5, -9, 3
 387, -5, -7, 1
 388, -3, -7, 1
 389, -5, -9, 1
 390, -3, -5, 1
 391, -5, -3, 3
 392, -3, -3, 3
 393, -3, -5, 3
 394, -5, -5, 3
 395, -5, -3, 1
 396, -3, -3, 1
 397, -5, -5, 1
 398, -3, -1, 1
 399, -5, 1, 3
 400, -3, 1, 3
 401, -3, -1, 3
 402, -5, -1, 3
 403, -5, 1, 1
 404, -3, 1, 1
 405, -5, -1, 1
 406, -3, 3, 1
 407, -5, 5, 3
 408, -3, 5, 3
 409, -3, 3, 3
 410, -5, 3, 3
 411, -5, 5, 1
 412, -3, 5, 1
 413, -5, 3, 1
 414, -3, 7, 1
 415, -5, 9, 3
 416, -3, 9, 3
 417, -3, 7, 3
 418, -5, 7, 3
 419, -5, 9, 1
 420, -3, 9, 1
 421, -5, 7, 1
 422, 1, -9, 1
 423, -1, -7, 3
 424, 1, -7, 3
 425, 1, -9, 3
 426, -1, -9, 3
 427, -1, -7, 1
 428, 1, -7, 1
 429, -1, -9, 1
 430, 1, -5, 1
 431, -1, -3, 3
 432, 1, -3, 3
 433, 1, -5, 3
 434, -1, -5, 3
 435, -1, -3, 1
 436, 1, -3, 1
 437, -1, -5, 1
 438, 1, -1, 1
 439, -1, 1, 3
 440, 1, 1, 3
 441, 1, -1, 3
 442, -1, -1, 3
 443, -1, 1, 1
 444, 1, 1, 1
 445, -1, -1, 1
 446, 1, 3, 1
 447, -1, 5, 3
 448, 1, 5, 3
 449, 1, 3, 3
 450, -1, 3, 3
 451, -1, 5, 1
 452, 1, 5, 1
 453, -1, 3, 1
 454, 1, 7, 1
 455, -1, 9, 3
 456, 1, 9, 3
 457, 1, 7, 3
 458, -1, 7, 3
 459, -1, 9, 1
 460, 1, 9, 1
 461, -1, 7, 1
 462, 5, -9, 1
 463, 3, -7, 3
 464, 5, -7, 3
 465, 5, -9, 3
 466, 3, -9, 3
 467, 3, -7, 1
 468, 5, -7, 1
 469, 3, -9, 1
 470, 5, -5, 1
 471, 3, -3, 3
 472, 5, -3, 3
 473, 5, -5, 3
 474, 3, -5, 3
 475, 3, -3, 1
 476, 5, -3, 1
 477, 3, -5, 1
 478, 5, -1, 1
 479, 3, 1, 3
 480, 5, 1, 3
 481, 5, -1, 3
 482, 3, -1, 3
 483, 3, 1, 1
 484, 5, 1, 1
 485, 3, -1, 1
 486, 5, 3, 1
 487, 3, 5, 3
 488, 5, 5, 3
 489, 5, 3, 3
 490, 3, 3, 3
 491, 3, 5, 1
 492, 5, 5, 1
 493, 3, 3, 1
 494, 5, 7, 1
 495, 3, 9, 3
 496, 5, 9, 3
 497, 5, 7, 3
 498, 3, 7, 3
 499, 3, 9, 1
 500, 5, 9, 1
 501, 3, 7, 1
 502, 9, -9, 1
 503, 7, -7, 3
 504, 9, -7, 3
 505, 9, -9, 3
 506, 7, -9, 3
 507, 7, -7, 1
 508, 9, -7, 1
 509, 7, -9, 1
 510, 9, -5, 1
 511, 7, -3, 3
 512, 9, -3, 3
 513, 9, -5, 3
 514, 7, -5, 3
 515, 7, -3, 1
 516, 9, -3, 1
 517, 7, -5, 1
 518, 9, -1, 1
 519, 7, 1, 3
 520, 9, 1, 3
 521, 9, -1, 3
 522, 7, -1, 3
 523, 7, 1, 1
 524, 9, 1, 1
 525, 7, -1, 1
 526, 9, 3, 1
 527, 7, 5, 3
 528, 9, 5, 3
 529, 9, 3, 3
 530, 7, 3, 3
 531, 7, 5, 1
 532, 9, 5, 1
 533, 7, 3, 1
 534, 9, 7, 1
 535, 7, 9, 3
 536, 9, 9, 3
 537, 9, 7, 3
 538, 7, 7, 3
 539, 7, 9, 1
 540, 9, 9, 1
 541, 7, 7, 1
 542, -7, -9, 5
 543, -9, -7, 7
 544, -7, -7, 7
 545, -7, -9, 7
 546, -9, -9, 7
 547, -9, -7, 5
 548, -7, -7, 5
 549, -9, -9, 5
 550, -7, -5, 5
 551, -9, -3, 7
 552, -7, -3, 7
 553, -7, -5, 7
 554, -9, -5, 7
 555, -9, -3, 5
 556, -7, -3, 5
 557, -9, -5, 5
 558, -7, -1, 5
 559, -9, 1, 7
 560, -7, 1, 7
 561, -7, -1, 7
 562, -9, -1, 7
 563, -9, 1, 5
 564, -7, 1, 5
 565, -9, -1, 5
 566, -7, 3, 5
 567, -9, 5, 7
 568, -7, 5, 7
 569, -7, 3, 7
 570, -9, 3, 7
 571, -9, 5, 5
 572, -7, 5, 5
 573, -9, 3, 5
 574, -7, 7, 5
 575, -9, 9, 7
 576, -7, 9, 7
 577, -7, 7, 7
 578, -9, 7, 7
 579, -9, 9, 5
 580, -7, 9, 5
 581, -9, 7, 5
 582, -3, -9, 5
 583, -5, -7, 7
 584, -3, -7, 7
 585, -3, -9, 7
 586, -5, -9, 7
 587, -5, -7, 5
 588, -3, -7, 5
 589, -5, -9, 5
 590, -3, -5, 5
 591, -5, -3, 7
 592, -3, -3, 7
 593, -3, -5, 7
 594, -5, -5, 7
 595, -5, -3, 5
 596, -3, -3, 5
 597, -5, -5, 5
 598, -3, -1, 5
 599, -5, 1, 7
 600, -3, 1, 7
 601, -3, -1, 7
 602, -5, -1, 7
 603, -5, 1, 5
 604, -3, 1, 5
 605, -5, -1, 5
 606, -3, 3, 5
 607, -5, 5, 7
 608, -3, 5, 7
 609, -3, 3, 7
 610, -5, 3, 7
 611, -5, 5, 5
 612, -3, 5, 5
 613, -5, 3, 5
 614, -3, 7, 5
 615, -5, 9, 7
 616, -3, 9, 7
 617, -3, 7, 7
 618, -5, 7, 7
 619, -5, 9, 5
 620, -3, 9, 5
 621, -5, 7, 5
 622, 1, -9, 5
 623, -1, -7, 7
 624, 1, -7, 7
 625, 1, -9, 7
 626, -1, -9, 7
 627, -1, -7, 5
 628, 1, -7, 5
 629, -1, -9, 5
 630, 1, -5, 5
 631, -1, -3, 7
 632, 1, -3, 7
 633, 1, -5, 7
 634, -1, -5, 7
 635, -1, -3, 5
 636, 1, -3, 5
 637, -1, -5, 5
 638, 1, -1, 5
 639, -1, 1, 7
 640, 1, 1, 7
 641, 1, -1, 7
 642, -1, -1, 7
 643, -1, 1, 5
 644, 1, 1, 5
 645, -1, -1, 5
 646, 1, 3, 5
 647, -1, 5, 7
 648, 1, 5, 7
 649, 1, 3, 7
 650, -1, 3, 7
 651, -1, 5, 5
 652, 1, 5, 5
 653, -1, 3, 5
 654, 1, 7, 5
 655, -1, 9, 7
 656, 1, 9, 7
 657, 1, 7, 7
 658, -1, 7, 7
 659, -1, 9, 5
 660, 1, 9, 5
 661, -1, 7, 5
 662, 5, -9, 5
 663, 3, -7, 7
 664, 5, -7, 7
 665, 5, -9, 7
 666, 3, -9, 7
 667, 3, -7, 5
 668, 5, -7, 5
 669, 3, -9, 5
 670, 5, -5, 5
 671, 3, -3, 7
 672, 5, -3, 7
 673, 5, -5, 7
 674, 3, -5, 7
 675, 3, -3, 5
 676, 5, -3, 5
 677, 3, -5, 5
 678, 5, -1, 5
 679, 3, 1, 7
 680, 5, 1, 7
 681, 5, -1, 7
 682, 3, -1, 7
 683, 3, 1, 5
 684, 5, 1, 5
 685, 3, -1, 5
 686, 5, 3, 5
 687, 3, 5, 7
 688, 5, 5, 7
 689, 5, 3, 7
 690, 3, 3, 7
 691, 3, 5, 5
 692, 5, 5, 5
 693, 3, 3, 5
 694, 5, 7, 5
 695, 3, 9, 7
 696, 5, 9, 7
 697, 5, 7, 7
 698, 3, 7, 7
 699, 3, 9, 5
 700, 5, 9, 5
 701, 3, 7, 5
 702, 9, -9, 5
 703, 7, -7, 7
 704, 9, -7, 7
 705, 9, -9, 7
 706, 7, -9, 7
 707, 7, -7, 5
 708, 9, -7, 5
 709, 7, -9, 5
 710, 9, -5, 5
 711, 7, -3, 7
 712, 9, -3, 7
 713, 9, -5, 7
 714, 7, -5, 7
 715, 7, -3, 5
 716, 9, -3, 5
 717, 7, -5, 5
 718, 9, -1, 5
 719, 7, 1, 7
 720, 9, 1, 7
 721, 9, -1, 7
 722, 7, -1, 7
 723, 7, 1, 5
 724, 9, 1, 5
 725, 7, -1, 5
 726, 9, 3, 5
 727, 7, 5, 7
 728, 9, 5, 7
 729, 9, 3, 7
 730, 7, 3, 7
 731, 7, 5, 5
 732, 9, 5, 5
 733, 7, 3, 5
 734, 9, 7, 5
 735, 7, 9, 7
 736, 9, 9, 7
 737, 9, 7, 7
 738, 7, 7, 7
 739, 7, 9, 5
 740, 9, 9, 5
 741, 7, 7, 5
 742, -7, -9, 9
 743, -9, -7, 11
 744, -7, -7, 11
 745, -7, -9, 11
 746, -9, -9, 11
 747, -9, -7, 9
 748, -7, -7, 9
 749, -9, -9, 9
 750, -7, -5, 9
 751, -9, -3, 11
 752, -7, -3, 11
 753, -7, -5, 11
 754, -9, -5, 11
 755, -9, -3, 9
 756, -7, -3, 9
 757, -9, -5, 9
 758, -7, -1, 9
 759, -9, 1, 11
 760, -7, 1, 11
 761, -7, -1, 11
 762, -9, -1, 11
 763, -9, 1, 9
 764, -7, 1, 9
 765, -9, -1, 9
 766, -7, 3, 9
 767, -9, 5, 11
 768, -7, 5, 11
 769, -7, 3, 11
 770, -9, 3, 11
 771, -9, 5, 9
 772, -7, 5, 9
 773, -9, 3, 9
 774, -7, 7, 9
 775, -9, 9, 11
 776, -7, 9, 11
 777, -7, 7, 11
 778, -9, 7, 11
 779, -9, 9, 9
 780, -7, 9, 9
 781, -9, 7, 9
 782, -3, -9, 9
 783, -5, -7, 11
 784, -3, -7, 11
 785, -3, -9, 11
 786, -5, -9, 11
 787, -5, -7, 9
 788, -3, -7, 9
 789, -5, -9, 9
 790, -3, -5, 9
 791, -5, -3, 11
 792, -3, -3, 11
 793, -3, -5, 11
 794, -5, -5, 11
 795, -5, -3, 9
 796, -3, -3, 9
 797, -5, -5, 9
 798, -3, -1, 9
 799, -5, 1, 11
 800, -3, 1, 11
 801, -3, -1, 11
 802, -5, -1, 11
 803, -5, 1, 9
 804, -3, 1, 9
 805, -5, -1, 9
 806, -3, 3, 9
 807, -5, 5, 11
 808, -3, 5, 11
 809, -3, 3, 11
 810, -5, 3, 11
 811, -5, 5, 9
 812, -3, 5, 9
 813, -5, 3, 9
 814, -3, 7, 9
 815, -5, 9, 11
 816, -3, 9, 11
 817, -3, 7, 11
 818, -5, 7, 11
 819, -5, 9, 9
 820, -3, 9, 9
 821, -5, 7, 9
 822, 1, -9, 9
 823, -1, -7, 11
 824, 1, -7, 11
 825, 1, -9, 11
 826, -1, -9, 11
 827, -1, -7, 9
 828, 1, -7, 9
 829, -1, -9, 9
 830, 1, -5, 9
 831, -1, -3, 11
 832, 1, -3, 11
 833, 1, -5, 11
 834, -1, -5, 11
 835, -1, -3, 9
 836, 1, -3, 9
 837, -1, -5, 9
 838, 1, -1, 9
 839, -1, 1, 11
 840, 1, 1, 11
 841, 1, -1, 11
 842, -1, -1, 11
 843, -1, 1, 9
 844, 1, 1, 9
 845, -1, -1, 9
 846, 1, 3, 9
 847, -1, 5, 11
 848, 1, 5, 11
 849, 1, 3, 11
 850, -1, 3, 11
 851, -1, 5, 9
 852, 1, 5, 9
 853, -1, 3, 9
 854, 1, 7, 9
 855, -1, 9, 11
 856, 1, 9, 11
 857, 1, 7, 11
 858, -1, 7, 11
 859, -1, 9, 9
 860, 1, 9, 9
 861, -1, 7, 9
 862, 5, -9, 9
 863, 3, -7, 11
 864, 5, -7, 11
 865, 5, -9, 11
 866, 3, -9, 11
 867, 3, -7, 9
 868, 5, -7, 9
 869, 3, -9, 9
 870, 5, -5, 9
 871, 3, -3, 11
 872, 5, -3, 11
 873, 5, -5, 11
 874, 3, -5, 11
 875, 3, -3, 9
 876, 5, -3, 9
 877, 3, -5, 9
 878, 5, -1, 9
 879, 3, 1, 11
 880, 5, 1, 11
 881, 5, -1, 11
 882, 3, -1, 11
 883, 3, 1, 9
 884, 5, 1, 9
 885, 3, -1, 9
 886, 5, 3, 9
 887, 3, 5, 11
 888, 5, 5, 11
 889, 5, 3, 11
 890, 3, 3, 11
 891, 3, 5, 9
 892, 5, 5, 9
 893, 3, 3, 9
 894, 5, 7, 9
 895, 3, 9, 11
 896, 5, 9, 11
 897, 5, 7, 11
 898, 3, 7, 11
 899, 3, 9, 9
 900, 5, 9, 9
 901, 3, 7, 9
 902, 9, -9, 9
 903, 7, -7, 11
 904, 9, -7, 11
 905, 9, -9, 11
 906, 7, -9, 11
 907, 7, -7, 9
 908, 9, -7, 9
 909, 7, -9, 9
 910, 9, -5, 9
 911, 7, -3, 11
 912, 9, -3, 11
 913, 9, -5, 11
 914, 7, -5, 11
 915, 7, -3, 9
 916, 9, -3, 9
 917, 7, -5, 9
 918, 9, -1, 9
 919, 7, 1, 11
 920, 9, 1, 11
 921, 9, -1, 11
 922, 7, -1, 11
 923, 7, 1, 9
 924, 9, 1, 9
 925, 7, -1, 9
 926, 9, 3, 9
 927, 7, 5, 11
 928, 9, 5, 11
 929, 9, 3, 11
 930, 7, 3, 11
 931, 7, 5, 9
 932, 9, 5, 9
 933, 7, 3, 9
 934, 9, 7, 9
 935, 7, 9, 11
 936, 9, 9, 11
 937, 9, 7, 11
 938, 7, 7, 11
 939, 7, 9, 9
 940, 9, 9, 9
 941, 7, 7, 9
 942, -7, -9, 13
 943, -9, -7, 15
 944, -7, -7, 15
 945, -7, -9, 15
 946, -9, -9, 15
 947, -9, -7, 13
 948, -7, -7, 13
 949, -9, -9, 13
 950, -7, -5, 13
 951, -9, -3, 15
 952, -7, -3, 15
 953, -7, -5, 15
 954, -9, -5, 15
 955, -9, -3, 13
 956, -7, -3, 13
 957, -9, -5, 13
 958, -7, -1, 13
 959, -9, 1, 15
 960, -7, 1, 15
 961, -7, -1, 15
 962, -9, -1, 15
 963, -9, 1, 13
 964, -7, 1, 13
 965, -9, -1, 13
 966, -7, 3, 13
 967, -9, 5, 15
 968, -7, 5, 15
 969, -7, 3, 15
 970, -9, 3, 15
 971, -9, 5, 13
 972, -7, 5, 13
 973, -9, 3, 13
 974, -7, 7, 13
 975, -9, 9, 15
 976, -7, 9, 15
 977, -7, 7, 15
 978, -9, 7, 15
 979, -9, 9, 13
 980, -7, 9, 13
 981, -9, 7, 13
 982, -3, -9, 13
 983, -5, -7, 15
 984, -3, -7, 15
 985, -3, -9, 15
 986, -5, -9, 15
 987, -5, -7, 13
 988, -3, -7, 13
 989, -5, -9, 13
 990, -3, -5, 13
 991, -5, -3, 15
 992, -3, -3, 15
 993, -3, -5, 15
 994, -5, -5, 15
 995, -5, -3, 13
 996, -3, -3, 13
 997, -5, -5, 13
 998, -3, -1, 13
 999, -5, 1, 15
 1000, -3, 1, 15
 1001, -3, -1, 15
 1002, -5, -1, 15
 1003, -5, 1, 13
 1004, -3, 1, 13
 1005, -5, -1, 13
 1006, -3, 3, 13
 1007, -5, 5, 15
 1008, -3, 5, 15
 1009, -3, 3, 15
 1010, -5, 3, 15
 1011, -5, 5, 13
 1012, -3, 5, 13
 1013, -5, 3, 13
 1014, -3, 7, 13
 1015, -5, 9, 15
 1016, -3, 9, 15
 1017, -3, 7, 15
 1018, -5, 7, 15
 1019, -5, 9, 13
 1020, -3, 9, 13
 1021, -5, 7, 13
 1022, 1, -9, 13
 1023, -1, -7, 15
 1024, 1, -7, 15
 1025, 1, -9, 15
 1026, -1, -9, 15
 1027, -1, -7, 13
 1028, 1, -7, 13
 1029, -1, -9, 13
 1030, 1, -5, 13
 1031, -1, -3, 15
 1032, 1, -3, 15
 1033, 1, -5, 15
 1034, -1, -5, 15
 1035, -1, -3, 13
 1036, 1, -3, 13
 1037, -1, -5, 13
 1038, 1, -1, 13
 1039, -1, 1, 15
 1040, 1, 1, 15
 1041, 1, -1, 15
 1042, -1, -1, 15
 1043, -1, 1, 13
 1044, 1, 1, 13
 1045, -1, -1, 13
 1046, 1, 3, 13
 1047, -1, 5, 15
 1048, 1, 5, 15
 1049, 1, 3, 15
 1050, -1, 3, 15
 1051, -1, 5, 13
 1052, 1, 5, 13
 1053, -1, 3, 13
 1054, 1, 7, 13
 1055, -1, 9, 15
 1056, 1, 9, 15
 1057, 1, 7, 15
 1058, -1, 7, 15
 1059, -1, 9, 13
 1060, 1, 9, 13
 1061, -1, 7, 13
 1062, 5, -9, 13
 1063, 3, -7, 15
 1064, 5, -7, 15
 1065, 5, -9, 15
 1066, 3, -9, 15
 1067, 3, -7, 13
 1068, 5, -7, 13
 1069, 3, -9, 13
 1070, 5, -5, 13
 1071, 3, -3, 15
 1072, 5, -3, 15
 1073, 5, -5, 15
 1074, 3, -5, 15
 1075, 3, -3, 13
 1076, 5, -3, 13
 1077, 3, -5, 13
 1078, 5, -1, 13
 1079, 3, 1, 15
 1080, 5, 1, 15
 1081, 5, -1, 15
 1082, 3, -1, 15
 1083, 3, 1, 13
 1084, 5, 1, 13
 1085, 3, -1, 13
 1086, 5, 3, 13
 1087, 3, 5, 15
 1088, 5, 5, 15
 1089, 5, 3, 15
 1090, 3, 3, 15
 1091, 3, 5, 13
 1092, 5, 5, 13
 1093, 3, 3, 13
 1094, 5, 7, 13
 1095, 3, 9, 15
 1096, 5, 9, 15
 1097, 5, 7, 15
 1098, 3, 7, 15
 1099, 3, 9, 13
 1100, 5, 9, 13
 1101, 3, 7, 13
 1102, 9, -9, 13
 1103, 7, -7, 15
 1104, 9, -7, 15
 1105, 9, -9, 15
 1106, 7, -9, 15
 1107, 7, -7, 13
 1108, 9, -7, 13
 1109, 7, -9, 13
 1110, 9, -5, 13
 1111, 7, -3, 15
 1112, 9, -3, 15
 1113, 9, -5, 15
 1114, 7, -5, 15
 1115, 7, -3, 13
 1116, 9, -3, 13
 1117, 7, -5, 13
 1118, 9, -1, 13
 1119, 7, 1, 15
 1120, 9, 1, 15
 1121, 9, -1, 15
 1122, 7, -1, 15
 1123, 7, 1, 13
 1124, 9, 1, 13
 1125, 7, -1, 13
 1126, 9, 3, 13
 1127, 7, 5, 15
 1128, 9, 5, 15
 1129, 9, 3, 15
 1130, 7, 3, 15
 1131, 7, 5, 13
 1132, 9, 5, 13
 1133, 7, 3, 13
 1134, 9, 7, 13
 1135, 7, 9, 15
 1136, 9, 9, 15
 1137, 9, 7, 15
 1138, 7, 7, 15
 1139, 7, 9, 13
 1140, 9, 9, 13
 1141, 7, 7, 13
 1142, -7, -9, 17
 1143, -9, -7, 19
 1144, -7, -7, 19
 1145, -7, -9, 19
 1146, -9, -9, 19
 1147, -9, -7, 17
 1148, -7, -7, 17
 1149, -9, -9, 17
 1150, -7, -5, 17
 1151, -9, -3, 19
 1152, -7, -3, 19
 1153, -7, -5, 19
 1154, -9, -5, 19
 1155, -9, -3, 17
 1156, -7, -3, 17
 1157, -9, -5, 17
 1158, -7, -1, 17
 1159, -9, 1, 19
 1160, -7, 1, 19
 1161, -7, -1, 19
 1162, -9, -1, 19
 1163, -9, 1, 17
 1164, -7, 1, 17
 1165, -9, -1, 17
 1166, -7, 3, 17
 1167, -9, 5, 19
 1168, -7, 5, 19
 1169, -7, 3, 19
 1170, -9, 3, 19
 1171, -9, 5, 17
 1172, -7, 5, 17
 1173, -9, 3, 17
 1174, -7, 7, 17
 1175, -9, 9, 19
 1176, -7, 9, 19
 1177, -7, 7, 19
 1178, -9, 7, 19
 1179, -9, 9, 17
 1180, -7, 9, 17
 1181, -9, 7, 17
 1182, -3, -9, 17
 1183, -5, -7, 19
 1184, -3, -7, 19
 1185, -3, -9, 19
 1186, -5, -9, 19
 1187, -5, -7, 17
 1188, -3, -7, 17
 1189, -5, -9, 17
 1190, -3, -5, 17
 1191, -5, -3, 19
 1192, -3, -3, 19
 1193, -3, -5, 19
 1194, -5, -5, 19
 1195, -5, -3, 17
 1196, -3, -3, 17
 1197, -5, -5, 17
 1198, -3, -1, 17
 1199, -5, 1, 19
 1200, -3, 1, 19
 1201, -3, -1, 19
 1202, -5, -1, 19
 1203, -5, 1, 17
 1204, -3, 1, 17
 1205, -5, -1, 17
 1206, -3, 3, 17
 1207, -5, 5, 19
 1208, -3, 5, 19
 1209, -3, 3, 19
 1210, -5, 3, 19
 1211, -5, 5, 17
 1212, -3, 5, 17
 1213, -5, 3, 17
 1214, -3, 7, 17
 1215, -5, 9, 19
 1216, -3, 9, 19
 1217, -3, 7, 19
 1218, -5, 7, 19
 1219, -5, 9, 17
 1220, -3, 9, 17
 1221, -5, 7, 17
 1222, 1, -9, 17
 1223, -1, -7, 19
 1224, 1, -7, 19
 1225, 1, -9, 19
 1226, -1, -9, 19
 1227, -1, -7, 17
 1228, 1, -7, 17
 1229, -1, -9, 17
 1230, 1, -5, 17
 1231, -1, -3, 19
 1232, 1, -3, 19
 1233, 1, -5, 19
 1234, -1, -5, 19
 1235, -1, -3, 17
 1236, 1, -3, 17
 1237, -1, -5, 17
 1238, 1, -1, 17
 1239, -1, 1, 19
 1240, 1, 1, 19
 1241, 1, -1, 19
 1242, -1, -1, 19
 1243, -1, 1, 17
 1244, 1, 1, 17
 1245, -1, -1, 17
 1246, 1, 3, 17
 1247, -1, 5, 19
 1248, 1, 5, 19
 1249, 1, 3, 19
 1250, -1, 3, 19
 1251, -1, 5, 17
 1252, 1, 5, 17
 1253, -1, 3, 17
 1254, 1, 7, 17
 1255, -1, 9, 19
 1256, 1, 9, 19
 1257, 1, 7, 19
 1258, -1, 7, 19
 1259, -1, 9, 17
 1260, 1, 9, 17
 1261, -1, 7, 17
 1262, 5, -9, 17
 1263, 3, -7, 19
 1264, 5, -7, 19
 1265, 5, -9, 19
 1266, 3, -9, 19
 1267, 3, -7, 17
 1268, 5, -7, 17
 1269, 3, -9, 17
 1270, 5, -5, 17
 1271, 3, -3, 19
 1272, 5, -3, 19
 1273, 5, -5, 19
 1274, 3, -5, 19
 1275, 3, -3, 17
 1276, 5, -3, 17
 1277, 3, -5, 17
 1278, 5, -1, 17
 1279, 3, 1, 19
 1280, 5, 1, 19
 1281, 5, -1, 19
 1282, 3, -1, 19
 1283, 3, 1, 17
 1284, 5, 1, 17
 1285, 3, -1, 17
 1286, 5, 3, 17
 1287, 3, 5, 19
 1288, 5, 5, 19
 1289, 5, 3, 19
 1290, 3, 3, 19
 1291, 3, 5, 17
 1292, 5, 5, 17
 1293, 3, 3, 17
 1294, 5, 7, 17
 1295, 3, 9, 19
 1296, 5, 9, 19
 1297, 5, 7, 19
 1298, 3, 7, 19
 1299, 3, 9, 17
 1300, 5, 9, 17
 1301, 3, 7, 17
 1302, 9, -9, 17
 1303, 7, -7, 19
 1304, 9, -7, 19
 1305, 9, -9, 19
 1306, 7, -9, 19
 1307, 7, -7, 17
 1308, 9, -7, 17
 1309, 7, -9, 17
 1310, 9, -5, 17
 1311, 7, -3, 19
 1312, 9, -3, 19
 1313, 9, -5, 19
 1314, 7, -5, 19
 1315, 7, -3, 17
 1316, 9, -3, 17
 1317, 7, -5, 17
 1318, 9, -1, 17
 1319, 7, 1, 19
 1320, 9, 1, 19
 1321, 9, -1, 19
 1322, 7, -1, 19
 1323, 7, 1, 17
 1324, 9, 1, 17
 1325, 7, -1, 17
 1326, 9, 3, 17
 1327, 7, 5, 19
 1328, 9, 5, 19
 1329, 9, 3, 19
 1330, 7, 3, 19
 1331, 7, 5, 17
 1332, 9, 5, 17
 1333, 7, 3, 17
 1334, 9, 7, 17
 1335, 7, 9, 19
 1336, 9, 9, 19
 1337, 9, 7, 19
 1338, 7, 7, 19
 1339, 7, 9, 17
 1340, 9, 9, 17
 1341, 7, 7, 17
*ELEMENT,TYPE=B32,ELSET=Eexample
1, 68, 342, 37
2, 37, 343, 7
3, 37, 344, 63
4, 37, 345, 62
5, 37, 346, 2
6, 8, 347, 37
7, 73, 348, 37
8, 1, 349, 37
9, 73, 350, 42
10, 42, 351, 14
11, 42, 352, 64
12, 42, 353, 63
13, 42, 354, 7
14, 13, 355, 42
15, 78, 356, 42
16, 8, 357, 42
17, 78, 358, 47
18, 47, 359, 20
19, 47, 360, 65
20, 47, 361, 64
21, 47, 362, 14
22, 19, 363, 47
23, 83, 364, 47
24, 13, 365, 47
25, 83, 366, 52
26, 52, 367, 30
27, 52, 368, 66
28, 52, 369, 65
29, 52, 370, 20
30, 25, 371, 52
31, 88, 372, 52
32, 19, 373, 52
33, 88, 374, 57
34, 57, 375, 32
35, 57, 376, 67
36, 57, 377, 66
37, 57, 378, 30
38, 31, 379, 57
39, 93, 380, 57
40, 25, 381, 57
41, 123, 382, 98
42, 98, 383, 63
43, 98, 384, 129
44, 98, 385, 124
45, 98, 386, 62
46, 73, 387, 98
47, 130, 388, 98
48, 68, 389, 98
49, 130, 390, 103
50, 103, 391, 64
51, 103, 392, 136
52, 103, 393, 129
53, 103, 394, 63
54, 78, 395, 103
55, 135, 396, 103
56, 73, 397, 103
57, 135, 398, 108
58, 108, 399, 65
59, 108, 400, 142
60, 108, 401, 136
61, 108, 402, 64
62, 83, 403, 108
63, 141, 404, 108
64, 78, 405, 108
65, 141, 406, 113
66, 113, 407, 66
67, 113, 408, 152
68, 113, 409, 142
69, 113, 410, 65
70, 88, 411, 113
71, 147, 412, 113
72, 83, 413, 113
73, 147, 414, 118
74, 118, 415, 67
75, 118, 416, 154
76, 118, 417, 152
77, 118, 418, 66
78, 93, 419, 118
79, 153, 420, 118
80, 88, 421, 118
81, 184, 422, 159
82, 159, 423, 129
83, 159, 424, 190
84, 159, 425, 185
85, 159, 426, 124
86, 130, 427, 159
87, 191, 428, 159
88, 123, 429, 159
89, 191, 430, 164
90, 164, 431, 136
91, 164, 432, 197
92, 164, 433, 190
93, 164, 434, 129
94, 135, 435, 164
95, 196, 436, 164
96, 130, 437, 164
97, 196, 438, 169
98, 169, 439, 142
99, 169, 440, 203
100, 169, 441, 197
101, 169, 442, 136
102, 141, 443, 169
103, 202, 444, 169
104, 135, 445, 169
105, 202, 446, 174
106, 174, 447, 152
107, 174, 448, 213
108, 174, 449, 203
109, 174, 450, 142
110, 147, 451, 174
111, 208, 452, 174
112, 141, 453, 174
113, 208, 454, 179
114, 179, 455, 154
115, 179, 456, 215
116, 179, 457, 213
117, 179, 458, 152
118, 153, 459, 179
119, 214, 460, 179
120, 147, 461, 179
121, 245, 462, 220
122, 220, 463, 190
123, 220, 464, 276
124, 220, 465, 275
125, 220, 466, 185
126, 191, 467, 220
127, 250, 468, 220
128, 184, 469, 220
129, 250, 470, 225
130, 225, 471, 197
131, 225, 472, 277
132, 225, 473, 276
133, 225, 474, 190
134, 196, 475, 225
135, 255, 476, 225
136, 191, 477, 225
137, 255, 478, 230
138, 230, 479, 203
139, 230, 480, 278
140, 230, 481, 277
141, 230, 482, 197
142, 202, 483, 230
143, 260, 484, 230
144, 196, 485, 230
145, 260, 486, 235
146, 235, 487, 213
147, 235, 488, 279
148, 235, 489, 278
149, 235, 490, 203
150, 208, 491, 235
151, 265, 492, 235
152, 202, 493, 235
153, 265, 494, 240
154, 240, 495, 215
155, 240, 496, 280
156, 240, 497, 279
157, 240, 498, 213
158, 214, 499, 240
159, 270, 500, 240
160, 208, 501, 240
161, 306, 502, 281
162, 281, 503, 276
163, 281, 504, 312
164, 281, 505, 307
165, 281, 506, 275
166, 250, 507, 281
167, 313, 508, 281
168, 245, 509, 281
169, 313, 510, 286
170, 286, 511, 277
171, 286, 512, 319
172, 286, 513, 312
173, 286, 514, 276
174, 255, 515, 286
175, 318, 516, 286
176, 250, 517, 286
177, 318, 518, 291
178, 291, 519, 278
179, 291, 520, 325
180, 291, 521, 319
181, 291, 522, 277
182, 260, 523, 291
183, 324, 524, 291
184, 255, 525, 291
185, 324, 526, 296
186, 296, 527, 279
187, 296, 528, 335
188, 296, 529, 325
189, 296, 530, 278
190, 265, 531, 296
191, 330, 532, 296
192, 260, 533, 296
193, 330, 534, 301
194, 301, 535, 280
195, 301, 536, 337
196, 301, 537, 335
197, 301, 538, 279
198, 270, 539, 301
199, 336, 540, 301
200, 265, 541, 301
201, 62, 542, 38
202, 38, 543, 9
203, 38, 544, 74
204, 38, 545, 69
205, 38, 546, 3
206, 7, 547, 38
207, 63, 548, 38
208, 2, 549, 38
209, 63, 550, 43
210, 43, 551, 15
211, 43, 552, 79
212, 43, 553, 74
213, 43, 554, 9
214, 14, 555, 43
215, 64, 556, 43
216, 7, 557, 43
217, 64, 558, 48
218, 48, 559, 21
219, 48, 560, 84
220, 48, 561, 79
221, 48, 562, 15
222, 20, 563, 48
223, 65, 564, 48
224, 14, 565, 48
225, 65, 566, 53
226, 53, 567, 26
227, 53, 568, 89
228, 53, 569, 84
229, 53, 570, 21
230, 30, 571, 53
231, 66, 572, 53
232, 20, 573, 53
233, 66, 574, 58
234, 58, 575, 33
235, 58, 576, 94
236, 58, 577, 89
237, 58, 578, 26
238, 32, 579, 58
239, 67, 580, 58
240, 30, 581, 58
241, 124, 582, 99
242, 99, 583, 74
243, 99, 584, 131
244, 99, 585, 125
245, 99, 586, 69
246, 63, 587, 99
247, 129, 588, 99
248, 62, 589, 99
249, 129, 590, 104
250, 104, 591, 79
251, 104, 592, 137
252, 104, 593, 131
253, 104, 594, 74
254, 64, 595, 104
255, 136, 596, 104
256, 63, 597, 104
257, 136, 598, 109
258, 109, 599, 84
259, 109, 600, 143
260, 109, 601, 137
261, 109, 602, 79
262, 65, 603, 109
263, 142, 604, 109
264, 64, 605, 109
265, 142, 606, 114
266, 114, 607, 89
267, 114, 608, 148
268, 114, 609, 143
269, 114, 610, 84
270, 66, 611, 114
271, 152, 612, 114
272, 65, 613, 114
273, 152, 614, 119
274, 119, 615, 94
275, 119, 616, 155
276, 119, 617, 148
277, 119, 618, 89
278, 67, 619, 119
279, 154, 620, 119
280, 66, 621, 119
281, 185, 622, 160
282, 160, 623, 131
283, 160, 624, 192
284, 160, 625, 186
285, 160, 626, 125
286, 129, 627, 160
287, 190, 628, 160
288, 124, 629, 160
289, 190, 630, 165
290, 165, 631, 137
291, 165, 632, 198
292, 165, 633, 192
293, 165, 634, 131
294, 136, 635, 165
295, 197, 636, 165
296, 129, 637, 165
297, 197, 638, 170
298, 170, 639, 143
299, 170, 640, 204
300, 170, 641, 198
301, 170, 642, 137
302, 142, 643, 170
303, 203, 644, 170
304, 136, 645, 170
305, 203, 646, 175
306, 175, 647, 148
307, 175, 648, 209
308, 175, 649, 204
309, 175, 650, 143
310, 152, 651, 175
311, 213, 652, 175
312, 142, 653, 175
313, 213, 654, 180
314, 180, 655, 155
315, 180, 656, 216
316, 180, 657, 209
317, 180, 658, 148
318, 154, 659, 180
319, 215, 660, 180
320, 152, 661, 180
321, 275, 662, 221
322, 221, 663, 192
323, 221, 664, 251
324, 221, 665, 246
325, 221, 666, 186
326, 190, 667, 221
327, 276, 668, 221
328, 185, 669, 221
329, 276, 670, 226
330, 226, 671, 198
331, 226, 672, 256
332, 226, 673, 251
333, 226, 674, 192
334, 197, 675, 226
335, 277, 676, 226
336, 190, 677, 226
337, 277, 678, 231
338, 231, 679, 204
339, 231, 680, 261
340, 231, 681, 256
341, 231, 682, 198
342, 203, 683, 231
343, 278, 684, 231
344, 197, 685, 231
345, 278, 686, 236
346, 236, 687, 209
347, 236, 688, 266
348, 236, 689, 261
349, 236, 690, 204
350, 213, 691, 236
351, 279, 692, 236
352, 203, 693, 236
353, 279, 694, 241
354, 241, 695, 216
355, 241, 696, 271
356, 241, 697, 266
357, 241, 698, 209
358, 215, 699, 241
359, 280, 700, 241
360, 213, 701, 241
361, 307, 702, 282
362, 282, 703, 251
363, 282, 704, 314
364, 282, 705, 308
365, 282, 706, 246
366, 276, 707, 282
367, 312, 708, 282
368, 275, 709, 282
369, 312, 710, 287
370, 287, 711, 256
371, 287, 712, 320
372, 287, 713, 314
373, 287, 714, 251
374, 277, 715, 287
375, 319, 716, 287
376, 276, 717, 287
377, 319, 718, 292
378, 292, 719, 261
379, 292, 720, 326
380, 292, 721, 320
381, 292, 722, 256
382, 278, 723, 292
383, 325, 724, 292
384, 277, 725, 292
385, 325, 726, 297
386, 297, 727, 266
387, 297, 728, 331
388, 297, 729, 326
389, 297, 730, 261
390, 279, 731, 297
391, 335, 732, 297
392, 278, 733, 297
393, 335, 734, 302
394, 302, 735, 271
395, 302, 736, 338
396, 302, 737, 331
397, 302, 738, 266
398, 280, 739, 302
399, 337, 740, 302
400, 279, 741, 302
401, 69, 742, 39
402, 39, 743, 10
403, 39, 744, 75
404, 39, 745, 70
405, 39, 746, 4
406, 9, 747, 39
407, 74, 748, 39
408, 3, 749, 39
409, 74, 750, 44
410, 44, 751, 16
411, 44, 752, 80
412, 44, 753, 75
413, 44, 754, 10
414, 15, 755, 44
415, 79, 756, 44
416, 9, 757, 44
417, 79, 758, 49
418, 49, 759, 22
419, 49, 760, 85
420, 49, 761, 80
421, 49, 762, 16
422, 21, 763, 49
423, 84, 764, 49
424, 15, 765, 49
425, 84, 766, 54
426, 54, 767, 27
427, 54, 768, 90
428, 54, 769, 85
429, 54, 770, 22
430, 26, 771, 54
431, 89, 772, 54
432, 21, 773, 54
433, 89, 774, 59
434, 59, 775, 34
435, 59, 776, 95
436, 59, 777, 90
437, 59, 778, 27
438, 33, 779, 59
439, 94, 780, 59
440, 26, 781, 59
441, 125, 782, 100
442, 100, 783, 75
443, 100, 784, 132
444, 100, 785, 126
445, 100, 786, 70
446, 74, 787, 100
447, 131, 788, 100
448, 69, 789, 100
449, 131, 790, 105
450, 105, 791, 80
451, 105, 792, 138
452, 105, 793, 132
453, 105, 794, 75
454, 79, 795, 105
455, 137, 796, 105
456, 74, 797, 105
457, 137, 798, 110
458, 110, 799, 85
459, 110, 800, 144
460, 110, 801, 138
461, 110, 802, 80
462, 84, 803, 110
463, 143, 804, 110
464, 79, 805, 110
465, 143, 806, 115
466, 115, 807, 90
467, 115, 808, 149
468, 115, 809, 144
469, 115, 810, 85
470, 89, 811, 115
471, 148, 812, 115
472, 84, 813, 115
473, 148, 814, 120
474, 120, 815, 95
475, 120, 816, 156
476, 120, 817, 149
477, 120, 818, 90
478, 94, 819, 120
479, 155, 820, 120
480, 89, 821, 120
481, 186, 822, 161
482, 161, 823, 132
483, 161, 824, 193
484, 161, 825, 187
485, 161, 826, 126
486, 131, 827, 161
487, 192, 828, 161
488, 125, 829, 161
489, 192, 830, 166
490, 166, 831, 138
491, 166, 832, 199
492, 166, 833, 193
493, 166, 834, 132
494, 137, 835, 166
495, 198, 836, 166
496, 131, 837, 166
497, 198, 838, 171
498, 171, 839, 144
499, 171, 840, 205
500, 171, 841, 199
501, 171, 842, 138
502, 143, 843, 171
503, 204, 844, 171
504, 137, 845, 171
505, 204, 846, 176
506, 176, 847, 149
507, 176, 848, 210
508, 176, 849, 205
509, 176, 850, 144
510, 148, 851, 176
511, 209, 852, 176
512, 143, 853, 176
513, 209, 854, 181
514, 181, 855, 156
515, 181, 856, 217
516, 181, 857, 210
517, 181, 858, 149
518, 155, 859, 181
519, 216, 860, 181
520, 148, 861, 181
521, 246, 862, 222
522, 222, 863, 193
523, 222, 864, 252
524, 222, 865, 247
525, 222, 866, 187
526, 192, 867, 222
527, 251, 868, 222
528, 186, 869, 222
529, 251, 870, 227
530, 227, 871, 199
531, 227, 872, 257
532, 227, 873, 252
533, 227, 874, 193
534, 198, 875, 227
535, 256, 876, 227
536, 192, 877, 227
537, 256, 878, 232
538, 232, 879, 205
539, 232, 880, 262
540, 232, 881, 257
541, 232, 882, 199
542, 204, 883, 232
543, 261, 884, 232
544, 198, 885, 232
545, 261, 886, 237
546, 237, 887, 210
547, 237, 888, 267
548, 237, 889, 262
549, 237, 890, 205
550, 209, 891, 237
551, 266, 892, 237
552, 204, 893, 237
553, 266, 894, 242
554, 242, 895, 217
555, 242, 896, 272
556, 242, 897, 267
557, 242, 898, 210
558, 216, 899, 242
559, 271, 900, 242
560, 209, 901, 242
561, 308, 902, 283
562, 283, 903, 252
563, 283, 904, 315
564, 283, 905, 309
565, 283, 906, 247
566, 251, 907, 283
567, 314, 908, 283
568, 246, 909, 283
569, 314, 910, 288
570, 288, 911, 257
571, 288, 912, 321
572, 288, 913, 315
573, 288, 914, 252
574, 256, 915, 288
575, 320, 916, 288
576, 251, 917, 288
577, 320, 918, 293
578, 293, 919, 262
579, 293, 920, 327
580, 293, 921, 321
581, 293, 922, 257
582, 261, 923, 293
583, 326, 924, 293
584, 256, 925, 293
585, 326, 926, 298
586, 298, 927, 267
587, 298, 928, 332
588, 298, 929, 327
589, 298, 930, 262
590, 266, 931, 298
591, 331, 932, 298
592, 261, 933, 298
593, 331, 934, 303
594, 303, 935, 272
595, 303, 936, 339
596, 303, 937, 332
597, 303, 938, 267
598, 271, 939, 303
599, 338, 940, 303
600, 266, 941, 303
601, 70, 942, 40
602, 40, 943, 11
603, 40, 944, 76
604, 40, 945, 71
605, 40, 946, 5
606, 10, 947, 40
607, 75, 948, 40
608, 4, 949, 40
609, 75, 950, 45
610, 45, 951, 17
611, 45, 952, 81
612, 45, 953, 76
613, 45, 954, 11
614, 16, 955, 45
615, 80, 956, 45
616, 10, 957, 45
617, 80, 958, 50
618, 50, 959, 23
619, 50, 960, 86
620, 50, 961, 81
621, 50, 962, 17
622, 22, 963, 50
623, 85, 964, 50
624, 16, 965, 50
625, 85, 966, 55
626, 55, 967, 28
627, 55, 968, 91
628, 55, 969, 86
629, 55, 970, 23
630, 27, 971, 55
631, 90, 972, 55
632, 22, 973, 55
633, 90, 974, 60
634, 60, 975, 35
635, 60, 976, 96
636, 60, 977, 91
637, 60, 978, 28
638, 34, 979, 60
639, 95, 980, 60
640, 27, 981, 60
641, 126, 982, 101
642, 101, 983, 76
643, 101, 984, 133
644, 101, 985, 127
645, 101, 986, 71
646, 75, 987, 101
647, 132, 988, 101
648, 70, 989, 101
649, 132, 990, 106
650, 106, 991, 81
651, 106, 992, 139
652, 106, 993, 133
653, 106, 994, 76
654, 80, 995, 106
655, 138, 996, 106
656, 75, 997, 106
657, 138, 998, 111
658, 111, 999, 86
659, 111, 1000, 145
660, 111, 1001, 139
661, 111, 1002, 81
662, 85, 1003, 111
663, 144, 1004, 111
664, 80, 1005, 111
665, 144, 1006, 116
666, 116, 1007, 91
667, 116, 1008, 150
668, 116, 1009, 145
669, 116, 1010, 86
670, 90, 1011, 116
671, 149, 1012, 116
672, 85, 1013, 116
673, 149, 1014, 121
674, 121, 1015, 96
675, 121, 1016, 157
676, 121, 1017, 150
677, 121, 1018, 91
678, 95, 1019, 121
679, 156, 1020, 121
680, 90, 1021, 121
681, 187, 1022, 162
682, 162, 1023, 133
683, 162, 1024, 194
684, 162, 1025, 188
685, 162, 1026, 127
686, 132, 1027, 162
687, 193, 1028, 162
688, 126, 1029, 162
689, 193, 1030, 167
690, 167, 1031, 139
691, 167, 1032, 200
692, 167, 1033, 194
693, 167, 1034, 133
694, 138, 1035, 167
695, 199, 1036, 167
696, 132, 1037, 167
697, 199, 1038, 172
698, 172, 1039, 145
699, 172, 1040, 206
700, 172, 1041, 200
701, 172, 1042, 139
702, 144, 1043, 172
703, 205, 1044, 172
704, 138, 1045, 172
705, 205, 1046, 177
706, 177, 1047, 150
707, 177, 1048, 211
708, 177, 1049, 206
709, 177, 1050, 145
710, 149, 1051, 177
711, 210, 1052, 177
712, 144, 1053, 177
713, 210, 1054, 182
714, 182, 1055, 157
715, 182, 1056, 218
716, 182, 1057, 211
717, 182, 1058, 150
718, 156, 1059, 182
719, 217, 1060, 182
720, 149, 1061, 182
721, 247, 1062, 223
722, 223, 1063, 194
723, 223, 1064, 253
724, 223, 1065, 248
725, 223, 1066, 188
726, 193, 1067, 223
727, 252, 1068, 223
728, 187, 1069, 223
729, 252, 1070, 228
730, 228, 1071, 200
731, 228, 1072, 258
732, 228, 1073, 253
733, 228, 1074, 194
734, 199, 1075, 228
735, 257, 1076, 228
736, 193, 1077, 228
737, 257, 1078, 233
738, 233, 1079, 206
739, 233, 1080, 263
740, 233, 1081, 258
741, 233, 1082, 200
742, 205, 1083, 233
743, 262, 1084, 233
744, 199, 1085, 233
745, 262, 1086, 238
746, 238, 1087, 211
747, 238, 1088, 268
748, 238, 1089, 263
749, 238, 1090, 206
750, 210, 1091, 238
751, 267, 1092, 238
752, 205, 1093, 238
753, 267, 1094, 243
754, 243, 1095, 218
755, 243, 1096, 273
756, 243, 1097, 268
757, 243, 1098, 211
758, 217, 1099, 243
759, 272, 1100, 243
760, 210, 1101, 243
761, 309, 1102, 284
762, 284, 1103, 253
763, 284, 1104, 316
764, 284, 1105, 310
765, 284, 1106, 248
766, 252, 1107, 284
767, 315, 1108, 284
768, 247, 1109, 284
769, 315, 1110, 289
770, 289, 1111, 258
771, 289, 1112, 322
772, 289, 1113, 316
773, 289, 1114, 253
774, 257, 1115, 289
775, 321, 1116, 289
776, 252, 1117, 289
777, 321, 1118, 294
778, 294, 1119, 263
779, 294, 1120, 328
780, 294, 1121, 322
781, 294, 1122, 258
782, 262, 1123, 294
783, 327, 1124, 294
784, 257, 1125, 294
785, 327, 1126, 299
786, 299, 1127, 268
787, 299, 1128, 333
788, 299, 1129, 328
789, 299, 1130, 263
790, 267, 1131, 299
791, 332, 1132, 299
792, 262, 1133, 299
793, 332, 1134, 304
794, 304, 1135, 273
795, 304, 1136, 340
796, 304, 1137, 333
797, 304, 1138, 268
798, 272, 1139, 304
799, 339, 1140, 304
800, 267, 1141, 304
801, 71, 1142, 41
802, 41, 1143, 12
803, 41, 1144, 77
804, 41, 1145, 72
805, 41, 1146, 6
806, 11, 1147, 41
807, 76, 1148, 41
808, 5, 1149, 41
809, 76, 1150, 46
810, 46, 1151, 18
811, 46, 1152, 82
812, 46, 1153, 77
813, 46, 1154, 12
814, 17, 1155, 46
815, 81, 1156, 46
816, 11, 1157, 46
817, 81, 1158, 51
818, 51, 1159, 24
819, 51, 1160, 87
820, 51, 1161, 82
821, 51, 1162, 18
822, 23, 1163, 51
823, 86, 1164, 51
824, 17, 1165, 51
825, 86, 1166, 56
826, 56, 1167, 29
827, 56, 1168, 92
828, 56, 1169, 87
829, 56, 1170, 24
830, 28, 1171, 56
831, 91, 1172, 56
832, 23, 1173, 56
833, 91, 1174, 61
834, 61, 1175, 36
835, 61, 1176, 97
836, 61, 1177, 92
837, 61, 1178, 29
838, 35, 1179, 61
839, 96, 1180, 61
840, 28, 1181, 61
841, 127, 1182, 102
842, 102, 1183, 77
843, 102, 1184, 134
844, 102, 1185, 128
845, 102, 1186, 72
846, 76, 1187, 102
847, 133, 1188, 102
848, 71, 1189, 102
849, 133, 1190, 107
850, 107, 1191, 82
851, 107, 1192, 140
852, 107, 1193, 134
853, 107, 1194, 77
854, 81, 1195, 107
855, 139, 1196, 107
856, 76, 1197, 107
857, 139, 1198, 112
858, 112, 1199, 87
859, 112, 1200, 146
860, 112, 1201, 140
861, 112, 1202, 82
862, 86, 1203, 112
863, 145, 1204, 112
864, 81, 1205, 112
865, 145, 1206, 117
866, 117, 1207, 92
867, 117, 1208, 151
868, 117, 1209, 146
869, 117, 1210, 87
870, 91, 1211, 117
871, 150, 1212, 117
872, 86, 1213, 117
873, 150, 1214, 122
874, 122, 1215, 97
875, 122, 1216, 158
876, 122, 1217, 151
877, 122, 1218, 92
878, 96, 1219, 122
879, 157, 1220, 122
880, 91, 1221, 122
881, 188, 1222, 163
882, 163, 1223, 134
883, 163, 1224, 195
884, 163, 1225, 189
885, 163, 1226, 128
886, 133, 1227, 163
887, 194, 1228, 163
888, 127, 1229, 163
889, 194, 1230, 168
890, 168, 1231, 140
891, 168, 1232, 201
892, 168, 1233, 195
893, 168, 1234, 134
894, 139, 1235, 168
895, 200, 1236, 168
896, 133, 1237, 168
897, 200, 1238, 173
898, 173, 1239, 146
899, 173, 1240, 207
900, 173, 1241, 201
901, 173, 1242, 140
902, 145, 1243, 173
903, 206, 1244, 173
904, 139, 1245, 173
905, 206, 1246, 178
906, 178, 1247, 151
907, 178, 1248, 212
908, 178, 1249, 207
909, 178, 1250, 146
910, 150, 1251, 178
911, 211, 1252, 178
912, 145, 1253, 178
913, 211, 1254, 183
914, 183, 1255, 158
915, 183, 1256, 219
916, 183, 1257, 212
917, 183, 1258, 151
918, 157, 1259, 183
919, 218, 1260, 183
920, 150, 1261, 183
921, 248, 1262, 224
922, 224, 1263, 195
923, 224, 1264, 254
924, 224, 1265, 249
925, 224, 1266, 189
926, 194, 1267, 224
927, 253, 1268, 224
928, 188, 1269, 224
929, 253, 1270, 229
930, 229, 1271, 201
931, 229, 1272, 259
932, 229, 1273, 254
933, 229, 1274, 195
934, 200, 1275, 229
935, 258, 1276, 229
936, 194, 1277, 229
937, 258, 1278, 234
938, 234, 1279, 207
939, 234, 1280, 264
940, 234, 1281, 259
941, 234, 1282, 201
942, 206, 1283, 234
943, 263, 1284, 234
944, 200, 1285, 234
945, 263, 1286, 239
946, 239, 1287, 212
947, 239, 1288, 269
948, 239, 1289, 264
949, 239, 1290, 207
950, 211, 1291, 239
951, 268, 1292, 239
952, 206, 1293, 239
953, 268, 1294, 244
954, 244, 1295, 219
955, 244, 1296, 274
956, 244, 1297, 269
957, 244, 1298, 212
958, 218, 1299, 244
959, 273, 1300, 244
960, 211, 1301, 244
961, 310, 1302, 285
962, 285, 1303, 254
963, 285, 1304, 317
964, 285, 1305, 311
965, 285, 1306, 249
966, 253, 1307, 285
967, 316, 1308, 285
968, 248, 1309, 285
969, 316, 1310, 290
970, 290, 1311, 259
971, 290, 1312, 323
972, 290, 1313, 317
973, 290, 1314, 254
974, 258, 1315, 290
975, 322, 1316, 290
976, 253, 1317, 290
977, 322, 1318, 295
978, 295, 1319, 264
979, 295, 1320, 329
980, 295, 1321, 323
981, 295, 1322, 259
982, 263, 1323, 295
983, 328, 1324, 295
984, 258, 1325, 295
985, 328, 1326, 300
986, 300, 1327, 269
987, 300, 1328, 334
988, 300, 1329, 329
989, 300, 1330, 264
990, 268, 1331, 300
991, 333, 1332, 300
992, 263, 1333, 300
993, 333, 1334, 305
994, 305, 1335, 274
995, 305, 1336, 341
996, 305, 1337, 334
997, 305, 1338, 269
998, 273, 1339, 305
999, 340, 1340, 305
1000, 268, 1341, 305
** NORMAL = Element,Node,X,Y,Z
*NORMAL
 1, 68, -0.577, 0.577, 0.577
 2, 37, -0.577, 0.577, 0.577
 3, 37, 0.577, 0.577, 0.577
 4, 37, 0.577, -0.577, 0.577
 5, 37, -0.577, -0.577, 0.577
 6, 8, 0.577, -0.577, 0.577
 7, 73, -0.577, -0.577, 0.577
 8, 1, 0.577, 0.577, 0.577
 9, 73, -0.577, 0.577, 0.577
 10, 42, -0.577, 0.577, 0.577
 11, 42, 0.577, 0.577, 0.577
 12, 42, 0.577, -0.577, 0.577
 13, 42, -0.577, -0.577, 0.577
 14, 13, 0.577, -0.577, 0.577
 15, 78, -0.577, -0.577, 0.577
 16, 8, 0.577, 0.577, 0.577
 17, 78, -0.577, 0.577, 0.577
 18, 47, -0.577, 0.577, 0.577
 19, 47, 0.577, 0.577, 0.577
 20, 47, 0.577, -0.577, 0.577
 21, 47, -0.577, -0.577, 0.577
 22, 19, 0.577, -0.577, 0.577
 23, 83, -0.577, -0.577, 0.577
 24, 13, 0.577, 0.577, 0.577
 25, 83, -0.577, 0.577, 0.577
 26, 52, -0.577, 0.577, 0.577
 27, 52, 0.577, 0.577, 0.577
 28, 52, 0.577, -0.577, 0.577
 29, 52, -0.577, -0.577, 0.577
 30, 25, 0.577, -0.577, 0.577
 31, 88, -0.577, -0.577, 0.577
 32, 19, 0.577, 0.577, 0.577
 33, 88, -0.577, 0.577, 0.577
 34, 57, -0.577, 0.577, 0.577
 35, 57, 0.577, 0.577, 0.577
 36, 57, 0.577, -0.577, 0.577
 37, 57, -0.577, -0.577, 0.577
 38, 31, 0.577, -0.577, 0.577
 39, 93, -0.577, -0.577, 0.577
 40, 25, 0.577, 0.577, 0.577
 41, 123, -0.577, 0.577, 0.577
 42, 98, -0.577, 0.577, 0.577
 43, 98, 0.577, 0.577, 0.577
 44, 98, 0.577, -0.577, 0.577
 45, 98, -0.577, -0.577, 0.577
 46, 73, 0.577, -0.577, 0.577
 47, 130, -0.577, -0.577, 0.577
 48, 68, 0.577, 0.577, 0.577
 49, 130, -0.577, 0.577, 0.577
 50, 103, -0.577, 0.577, 0.577
 51, 103, 0.577, 0.577, 0.577
 52, 103, 0.577, -0.577, 0.577
 53, 103, -0.577, -0.577, 0.577
 54, 78, 0.577, -0.577, 0.577
 55, 135, -0.577, -0.577, 0.577
 56, 73, 0.577, 0.577, 0.577
 57, 135, -0.577, 0.577, 0.577
 58, 108, -0.577, 0.577, 0.577
 59, 108, 0.577, 0.577, 0.577
 60, 108, 0.577, -0.577, 0.577
 61, 108, -0.577, -0.577, 0.577
 62, 83, 0.577, -0.577, 0.577
 63, 141, -0.577, -0.577, 0.577
 64, 78, 0.577, 0.577, 0.577
 65, 141, -0.577, 0.577, 0.577
 66, 113, -0.577, 0.577, 0.577
 67, 113, 0.577, 0.577, 0.577
 68, 113, 0.577, -0.577, 0.577
 69, 113, -0.577, -0.577, 0.577
 70, 88, 0.577, -0.577, 0.577
 71, 147, -0.577, -0.577, 0.577
 72, 83, 0.577, 0.577, 0.577
 73, 147, -0.577, 0.577, 0.577
 74, 118, -0.577, 0.577, 0.577
 75, 118, 0.577, 0.577, 0.577
 76, 118, 0.577, -0.577, 0.577
 77, 118, -0.577, -0.577, 0.577
 78, 93, 0.577, -0.577, 0.577
 79, 153, -0.577, -0.577, 0.577
 80, 88, 0.577, 0.577, 0.577
 81, 184, -0.577, 0.577, 0.577
 82, 159, -0.577, 0.577, 0.577
 83, 159, 0.577, 0.577, 0.577
 84, 159, 0.577, -0.577, 0.577
 85, 159, -0.577, -0.577, 0.577
 86, 130, 0.577, -0.577, 0.577
 87, 191, -0.577, -0.577, 0.577
 88, 123, 0.577, 0.577, 0.577
 89, 191, -0.577, 0.577, 0.577
 90, 164, -0.577, 0.577, 0.577
 91, 164, 0.577, 0.577, 0.577
 92, 164, 0.577, -0.577, 0.577
 93, 164, -0.577, -0.577, 0.577
 94, 135, 0.577, -0.577, 0.577
 95, 196, -0.577, -0.577, 0.577
 96, 130, 0.577, 0.577, 0.577
 97, 196, -0.577, 0.577, 0.577
 98, 169, -0.577, 0.577, 0.577
 99, 169, 0.577, 0.577, 0.577
 100, 169, 0.577, -0.577, 0.577
 101, 169, -0.577, -0.577, 0.577
 102, 141, 0.577, -0.577, 0.577
 103, 202, -0.577, -0.577, 0.577
 104, 135, 0.577, 0.577, 0.577
 105, 202, -0.577, 0.577, 0.577
 106, 174, -0.577, 0.577, 0.577
 107, 174, 0.577, 0.577, 0.577
 108, 174, 0.577, -0.577, 0.577
 109, 174, -0.577, -0.577, 0.577
 110, 147, 0.577, -0.577, 0.577
 111, 208, -0.577, -0.577, 0.577
 112, 141, 0.577, 0.577, 0.577
 113, 208, -0.577, 0.577, 0.577
 114, 179, -0.577, 0.577, 0.577
 115, 179, 0.577, 0.577, 0.577
 116, 179, 0.577, -0.577, 0.577
 117, 179, -0.577, -0.577, 0.577
 118, 153, 0.577, -0.577, 0.577
 119, 214, -0.577, -0.577, 0.577
 120, 147, 0.577, 0.577, 0.577
 121, 245, -0.577, 0.577, 0.577
 122, 220, -0.577, 0.577, 0.577
 123, 220, 0.577, 0.577, 0.577
 124, 220, 0.577, -0.577, 0.577
 125, 220, -0.577, -0.577, 0.577
 126, 191, 0.577, -0.577, 0.577
 127, 250, -0.577, -0.577, 0.577
 128, 184, 0.577, 0.577, 0.577
 129, 250, -0.577, 0.577, 0.577
 130, 225, -0.577, 0.577, 0.577
 131, 225, 0.577, 0.577, 0.577
 132, 225, 0.577, -0.577, 0.577
 133, 225, -0.577, -0.577, 0.577
 134, 196, 0.577, -0.577, 0.577
 135, 255, -0.577, -0.577, 0.577
 136, 191, 0.577, 0.577, 0.577
 137, 255, -0.577, 0.577, 0.577
 138, 230, -0.577, 0.577, 0.577
 139, 230, 0.577, 0.577, 0.577
 140, 230, 0.577, -0.577, 0.577
 141, 230, -0.577, -0.577, 0.577
 142, 202, 0.577, -0.577, 0.577
 143, 260, -0.577, -0.577, 0.577
 144, 196, 0.577, 0.577, 0.577
 145, 260, -0.577, 0.577, 0.577
 146, 235, -0.577, 0.577, 0.577
 147, 235, 0.577, 0.577, 0.577
 148, 235, 0.577, -0.577, 0.577
 149, 235, -0.577, -0.577, 0.577
 150, 208, 0.577, -0.577, 0.577
 151, 265, -0.577, -0.577, 0.577
 152, 202, 0.577, 0.577, 0.577
 153, 265, -0.577, 0.577, 0.577
 154, 240, -0.577, 0.577, 0.577
 155, 240, 0.577, 0.577, 0.577
 156, 240, 0.577, -0.577, 0.577
 157, 240, -0.577, -0.577, 0.577
 158, 214, 0.577, -0.577, 0.577
 159, 270, -0.577, -0.577, 0.577
 160, 208, 0.577, 0.577, 0.577
 161, 306, -0.577, 0.577, 0.577
 162, 281, -0.577, 0.577, 0.577
 163, 281, 0.577, 0.577, 0.577
 164, 281, 0.577, -0.577, 0.577
 165, 281, -0.577, -0.577, 0.577
 166, 250, 0.577, -0.577, 0.577
 167, 313, -0.577, -0.577, 0.577
 168, 245, 0.577, 0.577, 0.577
 169, 313, -0.577, 0.577, 0.577
 170, 286, -0.577, 0.577, 0.577
 171, 286, 0.577, 0.577, 0.577
 172, 286, 0.577, -0.577, 0.577
 173, 286, -0.577, -0.577, 0.577
 174, 255, 0.577, -0.577, 0.577
 175, 318, -0.577, -0.577, 0.577
 176, 250, 0.577, 0.577, 0.577
 177, 318, -0.577, 0.577, 0.577
 178, 291, -0.577, 0.577, 0.577
 179, 291, 0.577, 0.577, 0.577
 180, 291, 0.577, -0.577, 0.577
 181, 291, -0.577, -0.577, 0.577
 182, 260, 0.577, -0.577, 0.577
 183, 324, -0.577, -0.577, 0.577
 184, 255, 0.577, 0.577, 0.577
 185, 324, -0.577, 0.577, 0.577
 186, 296, -0.577, 0.577, 0.577
 187, 296, 0.577, 0.577, 0.577
 188, 296, 0.577, -0.577, 0.577
 189, 296, -0.577, -0.577, 0.577
 190, 265, 0.577, -0.577, 0.577
 191, 330, -0.577, -0.577, 0.577
 192, 260, 0.577, 0.577, 0.577
 193, 330, -0.577, 0.577, 0.577
 194, 301, -0.577, 0.577, 0.577
 195, 301, 0.577, 0.577, 0.577
 196, 301, 0.577, -0.577, 0.577
 197, 301, -0.577, -0.577, 0.577
 198, 270, 0.577, -0.577, 0.577
 199, 336, -0.577, -0.577, 0.577
 200, 265, 0.577, 0.577, 0.577
 201, 62, -0.577, 0.577, 0.577
 202, 38, -0.577, 0.577, 0.577
 203, 38, 0.577, 0.577, 0.577
 204, 38, 0.577, -0.577, 0.577
 205, 38, -0.577, -0.577, 0.577
 206, 7, 0.577, -0.577, 0.577
 207, 63, -0.577, -0.577, 0.577
 208, 2, 0.577, 0.577, 0.577
 209, 63, -0.577, 0.577, 0.577
 210, 43, -0.577, 0.577, 0.577
 211, 43, 0.577, 0.577, 0.577
 212, 43, 0.577, -0.577, 0.577
 213, 43, -0.577, -0.577, 0.577
 214, 14, 0.577, -0.577, 0.577
 215, 64, -0.577, -0.577, 0.577
 216, 7, 0.577, 0.577, 0.577
 217, 64, -0.577, 0.577, 0.577
 218, 48, -0.577, 0.577, 0.577
 219, 48, 0.577, 0.577, 0.577
 220, 48, 0.577, -0.577, 0.577
 221, 48, -0.577, -0.577, 0.577
 222, 20, 0.577, -0.577, 0.577
 223, 65, -0.577, -0.577, 0.577
 224, 14, 0.577, 0.577, 0.577
 225, 65, -0.577, 0.577, 0.577
 226, 53, -0.577, 0.577, 0.577
 227, 53, 0.577, 0.577, 0.577
 228, 53, 0.577, -0.577, 0.577
 229, 53, -0.577, -0.577, 0.577
 230, 30, 0.577, -0.577, 0.577
 231, 66, -0.577, -0.577, 0.577
 232, 20, 0.577, 0.577, 0.577
 233, 66, -0.577, 0.577, 0.577
 234, 58, -0.577, 0.577, 0.577
 235, 58, 0.577, 0.577, 0.577
 236, 58, 0.577, -0.577, 0.577
 237, 58, -0.577, -0.577, 0.577
 238, 32, 0.577, -0.577, 0.577
 239, 67, -0.577, -0.577, 0.577
 240, 30, 0.577, 0.577, 0.577
 241, 124, -0.577, 0.577, 0.577
 242, 99, -0.577, 0.577, 0.577
 243, 99, 0.577, 0.577, 0.577
 244, 99, 0.577, -0.577, 0.577
 245, 99, -0.577, -0.577, 0.577
 246, 63, 0.577, -0.577, 0.577
 247, 129, -0.577, -0.577, 0.577
 248, 62, 0.577, 0.577, 0.577
 249, 129, -0.577, 0.577, 0.577
 250, 104, -0.577, 0.577, 0.577
 251, 104, 0.577, 0.577, 0.577
 252, 104, 0.577, -0.577, 0.577
 253, 104, -0.577, -0.577, 0.577
 254, 64, 0.577, -0.577, 0.577
 255, 136, -0.577, -0.577, 0.577
 256, 63, 0.577, 0.577, 0.577
 257, 136, -0.577, 0.577, 0.577
 258, 109, -0.577, 0.577, 0.577
 259, 109, 0.577, 0.577, 0.577
 260, 109, 0.577, -0.577, 0.577
 261, 109, -0.577, -0.577, 0.577
 262, 65, 0.577, -0.577, 0.577
 263, 142, -0.577, -0.577, 0.577
 264, 64, 0.577, 0.577, 0.577
 265, 142, -0.577, 0.577, 0.577
 266, 114, -0.577, 0.577, 0.577
 267, 114, 0.577, 0.577, 0.577
 268, 114, 0.577, -0.577, 0.577
 269, 114, -0.577, -0.577, 0.577
 270, 66, 0.577, -0.577, 0.577
 271, 152, -0.577, -0.577, 0.577
 272, 65, 0.577, 0.577, 0.577
 273, 152, -0.577, 0.577, 0.577
 274, 119, -0.577, 0.577, 0.577
 275, 119, 0.577, 0.577, 0.577
 276, 119, 0.577, -0.577, 0.577
 277, 119, -0.577, -0.577, 0.577
 278, 67, 0.577, -0.577, 0.577
 279, 154, -0.577, -0.577, 0.577
 280, 66, 0.577, 0.577, 0.577
 281, 185, -0.577, 0.577, 0.577
 282, 160, -0.577, 0.577, 0.577
 283, 160, 0.577, 0.577, 0.577
 284, 160, 0.577, -0.577, 0.577
 285, 160, -0.577, -0.577, 0.577
 286, 129, 0.577, -0.577, 0.577
 287, 190, -0.577, -0.577, 0.577
 288, 124, 0.577, 0.577, 0.577
 289, 190, -0.577, 0.577, 0.577
 290, 165, -0.577, 0.577, 0.577
 291, 165, 0.577, 0.577, 0.577
 292, 165, 0.577, -0.577, 0.577
 293, 165, -0.577, -0.577, 0.577
 294, 136, 0.577, -0.577, 0.577
 295, 197, -0.577, -0.577, 0.577
 296, 129, 0.577, 0.577, 0.577
 297, 197, -0.577, 0.577, 0.577
 298, 170, -0.577, 0.577, 0.577
 299, 170, 0.577, 0.577, 0.577
 300, 170, 0.577, -0.577, 0.577
 301, 170, -0.577, -0.577, 0.577
 302, 142, 0.577, -0.577, 0.577
 303, 203, -0.577, -0.577, 0.577
 304, 136, 0.577, 0.577, 0.577
 305, 203, -0.577, 0.577, 0.577
 306, 175, -0.577, 0.577, 0.577
 307, 175, 0.577, 0.577, 0.577
 308, 175, 0.577, -0.577, 0.577
 309, 175, -0.577, -0.577, 0.577
 310, 152, 0.577, -0.577, 0.577
 311, 213, -0.577, -0.577, 0.577
 312, 142, 0.577, 0.577, 0.577
 313, 213, -0.577, 0.577, 0.577
 314, 180, -0.577, 0.577, 0.577
 315, 180, 0.577, 0.577, 0.577
 316, 180, 0.577, -0.577, 0.577
 317, 180, -0.577, -0.577, 0.577
 318, 154, 0.577, -0.577, 0.577
 319, 215, -0.577, -0.577, 0.577
 320, 152, 0.577, 0.577, 0.577
 321, 275, -0.577, 0.577, 0.577
 322, 221, -0.577, 0.577, 0.577
 323, 221, 0.577, 0.577, 0.577
 324, 221, 0.577, -0.577, 0.577
 325, 221, -0.577, -0.577, 0.577
 326, 190, 0.577, -0.577, 0.577
 327, 276, -0.577, -0.577, 0.577
 328, 185, 0.577, 0.577, 0.577
 329, 276, -0.577, 0.577, 0.577
 330, 226, -0.577, 0.577, 0.577
 331, 226, 0.577, 0.577, 0.577
 332, 226, 0.577, -0.577, 0.577
 333, 226, -0.577, -0.577, 0.577
 334, 197, 0.577, -0.577, 0.577
 335, 277, -0.577, -0.577, 0.577
 336, 190, 0.577, 0.577, 0.577
 337, 277, -0.577, 0.577, 0.577
 338, 231, -0.577, 0.577, 0.577
 339, 231, 0.577, 0.577, 0.577
 340, 231, 0.577, -0.577, 0.577
 341, 231, -0.577, -0.577, 0.577
 342, 203, 0.577, -0.577, 0.577
 343, 278, -0.577, -0.577, 0.577
 344, 197, 0.577, 0.577, 0.577
 345, 278, -0.577, 0.577, 0.577
 346, 236, -0.577, 0.577, 0.577
 347, 236, 0.577, 0.577, 0.577
 348, 236, 0.577, -0.577, 0.577
 349, 236, -0.577, -0.577, 0.577
 350, 213, 0.577, -0.577, 0.577
 351, 279, -0.577, -0.577, 0.577
 352, 203, 0.577, 0.577, 0.577
 353, 279, -0.577, 0.577, 0.577
 354, 241, -0.577, 0.577, 0.577
 355, 241, 0.577, 0.577, 0.577
 356, 241, 0.577, -0.577, 0.577
 357, 241, -0.577, -0.577, 0.577
 358, 215, 0.577, -0.577, 0.577
 359, 280, -0.577, -0.577, 0.577
 360, 213, 0.577, 0.577, 0.577
 361, 307, -0.577, 0.577, 0.577
 362, 282, -0.577, 0.577, 0.577
 363, 282, 0.577, 0.577, 0.577
 364, 282, 0.577, -0.577, 0.577
 365, 282, -0.577, -0.577, 0.577
 366, 276, 0.577, -0.577, 0.577
 367, 312, -0.577, -0.577, 0.577
 368, 275, 0.577, 0.577, 0.577
 369, 312, -0.577, 0.577, 0.577
 370, 287, -0.577, 0.577, 0.577
 371, 287, 0.577, 0.577, 0.577
 372, 287, 0.577, -0.577, 0.577
 373, 287, -0.577, -0.577, 0.577
 374, 277, 0.577, -0.577, 0.577
 375, 319, -0.577, -0.577, 0.577
 376, 276, 0.577, 0.577, 0.577
 377, 319, -0.577, 0.577, 0.577
 378, 292, -0.577, 0.577, 0.577
 379, 292, 0.577, 0.577, 0.577
 380, 292, 0.577, -0.577, 0.577
 381, 292, -0.577, -0.577, 0.577
 382, 278, 0.577, -0.577, 0.577
 383, 325, -0.577, -0.577, 0.577
 384, 277, 0.577, 0.577, 0.577
 385, 325, -0.577, 0.577, 0.577
 386, 297, -0.577, 0.577, 0.577
 387, 297, 0.577, 0.577, 0.577
 388, 297, 0.577, -0.577, 0.577
 389, 297, -0.577, -0.577, 0.577
 390, 279, 0.577, -0.577, 0.577
 391, 335, -0.577, -0.577, 0.577
 392, 278, 0.577, 0.577, 0.577
 393, 335, -0.577, 0.577, 0.577
 394, 302, -0.577, 0.577, 0.577
 395, 302, 0.577, 0.577, 0.577
 396, 302, 0.577, -0.577, 0.577
 397, 302, -0.577, -0.577, 0.577
 398, 280, 0.577, -0.577, 0.577
 399, 337, -0.577, -0.577, 0.577
 400, 279, 0.577, 0.577, 0.577
 401, 69, -0.577, 0.577, 0.577
 402, 39, -0.577, 0.577, 0.577
 403, 39, 0.577, 0.577, 0.577
 404, 39, 0.577, -0.577, 0.577
 405, 39, -0.577, -0.577, 0.577
 406, 9, 0.577, -0.577, 0.577
 407, 74, -0.577, -0.577, 0.577
 408, 3, 0.577, 0.577, 0.577
 409, 74, -0.577, 0.577, 0.577
 410, 44, -0.577, 0.577, 0.577
 411, 44, 0.577, 0.577, 0.577
 412, 44, 0.577, -0.577, 0.577
 413, 44, -0.577, -0.577, 0.577
 414, 15, 0.577, -0.577, 0.577
 415, 79, -0.577, -0.577, 0.577
 416, 9, 0.577, 0.577, 0.577
 417, 79, -0.577, 0.577, 0.577
 418, 49, -0.577, 0.577, 0.577
 419, 49, 0.577, 0.577, 0.577
 420, 49, 0.577, -0.577, 0.577
 421, 49, -0.577, -0.577, 0.577
 422, 21, 0.577, -0.577, 0.577
 423, 84, -0.577, -0.577, 0.577
 424, 15, 0.577, 0.577, 0.577
 425, 84, -0.577, 0.577, 0.577
 426, 54, -0.577, 0.577, 0.577
 427, 54, 0.577, 0.577, 0.577
 428, 54, 0.577, -0.577, 0.577
 429, 54, -0.577, -0.577, 0.577
 430, 26, 0.577, -0.577, 0.577
 431, 89, -0.577, -0.577, 0.577
 432, 21, 0.577, 0.577, 0.577
 433, 89, -0.577, 0.577, 0.577
 434, 59, -0.577, 0.577, 0.577
 435, 59, 0.577, 0.577, 0.577
 436, 59, 0.577, -0.577, 0.577
 437, 59, -0.577, -0.577, 0.577
 438, 33, 0.577, -0.577, 0.577
 439, 94, -0.577, -0.577, 0.577
 440, 26, 0.577, 0.577, 0.577
 441, 125, -0.577, 0.577, 0.577
 442, 100, -0.577, 0.577, 0.577
 443, 100, 0.577, 0.577, 0.577
 444, 100, 0.577, -0.577, 0.577
 445, 100, -0.577, -0.577, 0.577
 446, 74, 0.577, -0.577, 0.577
 447, 131, -0.577, -0.577, 0.577
 448, 69, 0.577, 0.577, 0.577
 449, 131, -0.577, 0.577, 0.577
 450, 105, -0.577, 0.577, 0.577
 451, 105, 0.577, 0.577, 0.577
 452, 105, 0.577, -0.577, 0.577
 453, 105, -0.577, -0.577, 0.577
 454, 79, 0.577, -0.577, 0.577
 455, 137, -0.577, -0.577, 0.577
 456, 74, 0.577, 0.577, 0.577
 457, 137, -0.577, 0.577, 0.577
 458, 110, -0.577, 0.577, 0.577
 459, 110, 0.577, 0.577, 0.577
 460, 110, 0.577, -0.577, 0.577
 461, 110, -0.577, -0.577, 0.577
 462, 84, 0.577, -0.577, 0.577
 463, 143, -0.577, -0.577, 0.577
 464, 79, 0.577, 0.577, 0.577
 465, 143, -0.577, 0.577, 0.577
 466, 115, -0.577, 0.577, 0.577
 467, 115, 0.577, 0.577, 0.577
 468, 115, 0.577, -0.577, 0.577
 469, 115, -0.577, -0.577, 0.577
 470, 89, 0.577, -0.577, 0.577
 471, 148, -0.577, -0.577, 0.577
 472, 84, 0.577, 0.577, 0.577
 473, 148, -0.577, 0.577, 0.577
 474, 120, -0.577, 0.577, 0.577
 475, 120, 0.577, 0.577, 0.577
 476, 120, 0.577, -0.577, 0.577
 477, 120, -0.577, -0.577, 0.577
 478, 94, 0.577, -0.577, 0.577
 479, 155, -0.577, -0.577, 0.577
 480, 89, 0.577, 0.577, 0.577
 481, 186, -0.577, 0.577, 0.577
 482, 161, -0.577, 0.577, 0.577
 483, 161, 0.577, 0.577, 0.577
 484, 161, 0.577, -0.577, 0.577
 485, 161, -0.577, -0.577, 0.577
 486, 131, 0.577, -0.577, 0.577
 487, 192, -0.577, -0.577, 0.577
 488, 125, 0.577, 0.577, 0.577
 489, 192, -0.577, 0.577, 0.577
 490, 166, -0.577, 0.577, 0.577
 491, 166, 0.577, 0.577, 0.577
 492, 166, 0.577, -0.577, 0.577
 493, 166, -0.577, -0.577, 0.577
 494, 137, 0.577, -0.577, 0.577
 495, 198, -0.577, -0.577, 0.577
 496, 131, 0.577, 0.577, 0.577
 497, 198, -0.577, 0.577, 0.577
 498, 171, -0.577, 0.577, 0.577
 499, 171, 0.577, 0.577, 0.577
 500, 171, 0.577, -0.577, 0.577
 501, 171, -0.577, -0.577, 0.577
 502, 143, 0.577, -0.577, 0.577
 503, 204, -0.577, -0.577, 0.577
 504, 137, 0.577, 0.577, 0.577
 505, 204, -0.577, 0.577, 0.577
 506, 176, -0.577, 0.577, 0.577
 507, 176, 0.577, 0.577, 0.577
 508, 176, 0.577, -0.577, 0.577
 509, 176, -0.577, -0.577, 0.577
 510, 148, 0.577, -0.577, 0.577
 511, 209, -0.577, -0.577, 0.577
 512, 143, 0.577, 0.577, 0.577
 513, 209, -0.577, 0.577, 0.577
 514, 181, -0.577, 0.577, 0.577
 515, 181, 0.577, 0.577, 0.577
 516, 181, 0.577, -0.577, 0.577
 517, 181, -0.577, -0.577, 0.577
 518, 155, 0.577, -0.577, 0.577
 519, 216, -0.577, -0.577, 0.577
 520, 148, 0.577, 0.577, 0.577
 521, 246, -0.577, 0.577, 0.577
 522, 222, -0.577, 0.577, 0.577
 523, 222, 0.577, 0.577, 0.577
 524, 222, 0.577, -0.577, 0.577
 525, 222, -0.577, -0.577, 0.577
 526, 192, 0.577, -0.577, 0.577
 527, 251, -0.577, -0.577, 0.577
 528, 186, 0.577, 0.577, 0.577
 529, 251, -0.577, 0.577, 0.577
 530, 227, -0.577, 0.577, 0.577
 531, 227, 0.577, 0.577, 0.577
 532, 227, 0.577, -0.577, 0.577
 533, 227, -0.577, -0.577, 0.577
 534, 198, 0.577, -0.577, 0.577
 535, 256, -0.577, -0.577, 0.577
 536, 192, 0.577, 0.577, 0.577
 537, 256, -0.577, 0.577, 0.577
 538, 232, -0.577, 0.577, 0.577
 539, 232, 0.577, 0.577, 0.577
 540, 232, 0.577, -0.577, 0.577
 541, 232, -0.577, -0.577, 0.577
 542, 204, 0.577, -0.577, 0.577
 543, 261, -0.577, -0.577, 0.577
 544, 198, 0.577, 0.577, 0.577
 545, 261, -0.577, 0.577, 0.577
 546, 237, -0.577, 0.577, 0.577
 547, 237, 0.577, 0.577, 0.577
 548, 237, 0.577, -0.577, 0.577
 549, 237, -0.577, -0.577, 0.577
 550, 209, 0.577, -0.577, 0.577
 551, 266, -0.577, -0.577, 0.577
 552, 204, 0.577, 0.577, 0.577
 553, 266, -0.577, 0.577, 0.577
 554, 242, -0.577, 0.577, 0.577
 555, 242, 0.577, 0.577, 0.577
 556, 242, 0.577, -0.577, 0.577
 557, 242, -0.577, -0.577, 0.577
 558, 216, 0.577, -0.577, 0.577
 559, 271, -0.577, -0.577, 0.577
 560, 209, 0.577, 0.577, 0.577
 561, 308, -0.577, 0.577, 0.577
 562, 283, -0.577, 0.577, 0.577
 563, 283, 0.577, 0.577, 0.577
 564, 283, 0.577, -0.577, 0.577
 565, 283, -0.577, -0.577, 0.577
 566, 251, 0.577, -0.577, 0.577
 567, 314, -0.577, -0.577, 0.577
 568, 246, 0.577, 0.577, 0.577
 569, 314, -0.577, 0.577, 0.577
 570, 288, -0.577, 0.577, 0.577
 571, 288, 0.577, 0.577, 0.577
 572, 288, 0.577, -0.577, 0.577
 573, 288, -0.577, -0.577, 0.577
 574, 256, 0.577, -0.577, 0.577
 575, 320, -0.577, -0.577, 0.577
 576, 251, 0.577, 0.577, 0.577
 577, 320, -0.577, 0.577, 0.577
 578, 293, -0.577, 0.577, 0.577
 579, 293, 0.577, 0.577, 0.577
 580, 293, 0.577, -0.577, 0.577
 581, 293, -0.577, -0.577, 0.577
 582, 261, 0.577, -0.577, 0.577
 583, 326, -0.577, -0.577, 0.577
 584, 256, 0.577, 0.577, 0.577
 585, 326, -0.577, 0.577, 0.577
 586, 298, -0.577, 0.577, 0.577
 587, 298, 0.577, 0.577, 0.577
 588, 298, 0.577, -0.577, 0.577
 589, 298, -0.577, -0.577, 0.577
 590, 266, 0.577, -0.577, 0.577
 591, 331, -0.577, -0.577, 0.577
 592, 261, 0.577, 0.577, 0.577
 593, 331, -0.577, 0.577, 0.577
 594, 303, -0.577, 0.577, 0.577
 595, 303, 0.577, 0.577, 0.577
 596, 303, 0.577, -0.577, 0.577
 597, 303, -0.577, -0.577, 0.577
 598, 271, 0.577, -0.577, 0.577
 599, 338, -0.577, -0.577, 0.577
 600, 266, 0.577, 0.577, 0.577
 601, 70, -0.577, 0.577, 0.577
 602, 40, -0.577, 0.577, 0.577
 603, 40, 0.577, 0.577, 0.577
 604, 40, 0.577, -0.577, 0.577
 605, 40, -0.577, -0.577, 0.577
 606, 10, 0.577, -0.577, 0.577
 607, 75, -0.577, -0.577, 0.577
 608, 4, 0.577, 0.577, 0.577
 609, 75, -0.577, 0.577, 0.577
 610, 45, -0.577, 0.577, 0.577
 611, 45, 0.577, 0.577, 0.577
 612, 45, 0.577, -0.577, 0.577
 613, 45, -0.577, -0.577, 0.577
 614, 16, 0.577, -0.577, 0.577
 615, 80, -0.577, -0.577, 0.577
 616, 10, 0.577, 0.577, 0.577
 617, 80, -0.577, 0.577, 0.577
 618, 50, -0.577, 0.577, 0.577
 619, 50, 0.577, 0.577, 0.577
 620, 50, 0.577, -0.577, 0.577
 621, 50, -0.577, -0.577, 0.577
 622, 22, 0.577, -0.577, 0.577
 623, 85, -0.577, -0.577, 0.577
 624, 16, 0.577, 0.577, 0.577
 625, 85, -0.577, 0.577, 0.577
 626, 55, -0.577, 0.577, 0.577
 627, 55, 0.577, 0.577, 0.577
 628, 55, 0.577, -0.577, 0.577
 629, 55, -0.577, -0.577, 0.577
 630, 27, 0.577, -0.577, 0.577
 631, 90, -0.577, -0.577, 0.577
 632, 22, 0.577, 0.577, 0.577
 633, 90, -0.577, 0.577, 0.577
 634, 60, -0.577, 0.577, 0.577
 635, 60, 0.577, 0.577, 0.577
 636, 60, 0.577, -0.577, 0.577
 637, 60, -0.577, -0.577, 0.577
 638, 34, 0.577, -0.577, 0.577
 639, 95, -0.577, -0.577, 0.577
 640, 27, 0.577, 0.577, 0.577
 641, 126, -0.577, 0.577, 0.577
 642, 101, -0.577, 0.577, 0.577
 643, 101, 0.577, 0.577, 0.577
 644, 101, 0.577, -0.577, 0.577
 645, 101, -0.577, -0.577, 0.577
 646, 75, 0.577, -0.577, 0.577
 647, 132, -0.577, -0.577, 0.577
 648, 70, 0.577, 0.577, 0.577
 649, 132, -0.577, 0.577, 0.577
 650, 106, -0.577, 0.577, 0.577
 651, 106, 0.577, 0.577, 0.577
 652, 106, 0.577, -0.577, 0.577
 653, 106, -0.577, -0.577, 0.577
 654, 80, 0.577, -0.577, 0.577
 655, 138, -0.577, -0.577, 0.577
 656, 75, 0.577, 0.577, 0.577
 657, 138, -0.577, 0.577, 0.577
 658, 111, -0.577, 0.577, 0.577
 659, 111, 0.577, 0.577, 0.577
 660, 111, 0.577, -0.577, 0.577
 661, 111, -0.577, -0.577, 0.577
 662, 85, 0.577, -0.577, 0.577
 663, 144, -0.577, -0.577, 0.577
 664, 80, 0.577, 0.577, 0.577
 665, 144, -0.577, 0.577, 0.577
 666, 116, -0.577, 0.577, 0.577
 667, 116, 0.577, 0.577, 0.577
 668, 116, 0.577, -0.577, 0.577
 669, 116, -0.577, -0.577, 0.577
 670, 90, 0.577, -0.577, 0.577
 671, 149, -0.577, -0.577, 0.577
 672, 85, 0.577, 0.577, 0.577
 673, 149, -0.577, 0.577, 0.577
 674, 121, -0.577, 0.577, 0.577
 675, 121, 0.577, 0.577, 0.577
 676, 121, 0.577, -0.577, 0.577
 677, 121, -0.577, -0.577, 0.577
 678, 95, 0.577, -0.577, 0.577
 679, 156, -0.577, -0.577, 0.577
 680, 90, 0.577, 0.577, 0.577
 681, 187, -0.577, 0.577, 0.577
 682, 162, -0.577, 0.577, 0.577
 683, 162, 0.577, 0.577, 0.577
 684, 162, 0.577, -0.577, 0.577
 685, 162, -0.577, -0.577, 0.577
 686, 132, 0.577, -0.577, 0.577
 687, 193, -0.577, -0.577, 0.577
 688, 126, 0.577, 0.577, 0.577
 689, 193, -0.577, 0.577, 0.577
 690, 167, -0.577, 0.577, 0.577
 691, 167, 0.577, 0.577, 0.577
 692, 167, 0.577, -0.577, 0.577
 693, 167, -0.577, -0.577, 0.577
 694, 138, 0.577, -0.577, 0.577
 695, 199, -0.577, -0.577, 0.577
 696, 132, 0.577, 0.577, 0.577
 697, 199, -0.577, 0.577, 0.577
 698, 172, -0.577, 0.577, 0.577
 699, 172, 0.577, 0.577, 0.577
 700, 172, 0.577, -0.577, 0.577
 701, 172, -0.577, -0.577, 0.577
 702, 144, 0.577, -0.577, 0.577
 703, 205, -0.577, -0.577, 0.577
 704, 138, 0.577, 0.577, 0.577
 705, 205, -0.577, 0.577, 0.577
 706, 177, -0.577, 0.577, 0.577
 707, 177, 0.577, 0.577, 0.577
 708, 177, 0.577, -0.577, 0.577
 709, 177, -0.577, -0.577, 0.577
 710, 149, 0.577, -0.577, 0.577
 711, 210, -0.577, -0.577, 0.577
 712, 144, 0.577, 0.577, 0.577
 713, 210, -0.577, 0.577, 0.577
 714, 182, -0.577, 0.577, 0.577
 715, 182, 0.577, 0.577, 0.577
 716, 182, 0.577, -0.577, 0.577
 717, 182, -0.577, -0.577, 0.577
 718, 156, 0.577, -0.577, 0.577
 719, 217, -0.577, -0.577, 0.577
 720, 149, 0.577, 0.577, 0.577
 721, 247, -0.577, 0.577, 0.577
 722, 223, -0.577, 0.577, 0.577
 723, 223, 0.577, 0.577, 0.577
 724, 223, 0.577, -0.577, 0.577
 725, 223, -0.577, -0.577, 0.577
 726, 193, 0.577, -0.577, 0.577
 727, 252, -0.577, -0.577, 0.577
 728, 187, 0.577, 0.577, 0.577
 729, 252, -0.577, 0.577, 0.577
 730, 228, -0.577, 0.577, 0.577
 731, 228, 0.577, 0.577, 0.577
 732, 228, 0.577, -0.577, 0.577
 733, 228, -0.577, -0.577, 0.577
 734, 199, 0.577, -0.577, 0.577
 735, 257, -0.577, -0.577, 0.577
 736, 193, 0.577, 0.577, 0.577
 737, 257, -0.577, 0.577, 0.577
 738, 233, -0.577, 0.577, 0.577
 739, 233, 0.577, 0.577, 0.577
 740, 233, 0.577, -0.577, 0.577
 741, 233, -0.577, -0.577, 0.577
 742, 205, 0.577, -0.577, 0.577
 743, 262, -0.577, -0.577, 0.577
 744, 199, 0.577, 0.577, 0.577
 745, 262, -0.577, 0.577, 0.577
 746, 238, -0.577, 0.577, 0.577
 747, 238, 0.577, 0.577, 0.577
 748, 238, 0.577, -0.577, 0.577
 749, 238, -0.577, -0.577, 0.577
 750, 210, 0.577, -0.577, 0.577
 751, 267, -0.577, -0.577, 0.577
 752, 205, 0.577, 0.577, 0.577
 753, 267, -0.577, 0.577, 0.577
 754, 243, -0.577, 0.577, 0.577
 755, 243, 0.577, 0.577, 0.577
 756, 243, 0.577, -0.577, 0.577
 757, 243, -0.577, -0.577, 0.577
 758, 217, 0.577, -0.577, 0.577
 759, 272, -0.577, -0.577, 0.577
 760, 210, 0.577, 0.577, 0.577
 761, 309, -0.577, 0.577, 0.577
 762, 284, -0.577, 0.577, 0.577
 763, 284, 0.577, 0.577, 0.577
 764, 284, 0.577, -0.577, 0.577
 765, 284, -0.577, -0.577, 0.577
 766, 252, 0.577, -0.577, 0.577
 767, 315, -0.577, -0.577, 0.577
 768, 247, 0.577, 0.577, 0.577
 769, 315, -0.577, 0.577, 0.577
 770, 289, -0.577, 0.577, 0.577
 771, 289, 0.577, 0.577, 0.577
 772, 289, 0.577, -0.577, 0.577
 773, 289, -0.577, -0.577, 0.577
 774, 257, 0.577, -0.577, 0.577
 775, 321, -0.577, -0.577, 0.577
 776, 252, 0.577, 0.577, 0.577
 777, 321, -0.577, 0.577, 0.577
 778, 294, -0.577, 0.577, 0.577
 779, 294, 0.577, 0.577, 0.577
 780, 294, 0.577, -0.577, 0.577
 781, 294, -0.577, -0.577, 0.577
 782, 262, 0.577, -0.577, 0.577
 783, 327, -0.577, -0.577, 0.577
 784, 257, 0.577, 0.577, 0.577
 785, 327, -0.577, 0.577, 0.577
 786, 299, -0.577, 0.577, 0.577
 787, 299, 0.577, 0.577, 0.577
 788, 299, 0.577, -0.577, 0.577
 789, 299, -0.577, -0.577, 0.577
 790, 267, 0.577, -0.577, 0.577
 791, 332, -0.577, -0.577, 0.577
 792, 262, 0.577, 0.577, 0.577
 793, 332, -0.577, 0.577, 0.577
 794, 304, -0.577, 0.577, 0.577
 795, 304, 0.577, 0.577, 0.577
 796, 304, 0.577, -0.577, 0.577
 797, 304, -0.577, -0.577, 0.577
 798, 272, 0.577, -0.577, 0.577
 799, 339, -0.577, -0.577, 0.577
 800, 267, 0.577, 0.577, 0.577
 801, 71, -0.577, 0.577, 0.577
 802, 41, -0.577, 0.577, 0.577
 803, 41, 0.577, 0.577, 0.577
 804, 41, 0.577, -0.577, 0.577
 805, 41, -0.577, -0.577, 0.577
 806, 11, 0.577, -0.577, 0.577
 807, 76, -0.577, -0.577, 0.577
 808, 5, 0.577, 0.577, 0.577
 809, 76, -0.577, 0.577, 0.577
 810, 46, -0.577, 0.577, 0.577
 811, 46, 0.577, 0.577, 0.577
 812, 46, 0.577, -0.577, 0.577
 813, 46, -0.577, -0.577, 0.577
 814, 17, 0.577, -0.577, 0.577
 815, 81, -0.577, -0.577, 0.577
 816, 11, 0.577, 0.577, 0.577
 817, 81, -0.577, 0.577, 0.577
 818, 51, -0.577, 0.577, 0.577
 819, 51, 0.577, 0.577, 0.577
 820, 51, 0.577, -0.577, 0.577
 821, 51, -0.577, -0.577, 0.577
 822, 23, 0.577, -0.577, 0.577
 823, 86, -0.577, -0.577, 0.577
 824, 17, 0.577, 0.577, 0.577
 825, 86, -0.577, 0.577, 0.577
 826, 56, -0.577, 0.577, 0.577
 827, 56, 0.577, 0.577, 0.577
 828, 56, 0.577, -0.577, 0.577
 829, 56, -0.577, -0.577, 0.577
 830, 28, 0.577, -0.577, 0.577
 831, 91, -0.577, -0.577, 0.577
 832, 23, 0.577, 0.577, 0.577
 833, 91, -0.577, 0.577, 0.577
 834, 61, -0.577, 0.577, 0.577
 835, 61, 0.577, 0.577, 0.577
 836, 61, 0.577, -0.577, 0.577
 837, 61, -0.577, -0.577, 0.577
 838, 35, 0.577, -0.577, 0.577
 839, 96, -0.577, -0.577, 0.577
 840, 28, 0.577, 0.577, 0.577
 841, 127, -0.577, 0.577, 0.577
 842, 102, -0.577, 0.577, 0.577
 843, 102, 0.577, 0.577, 0.577
 844, 102, 0.577, -0.577, 0.577
 845, 102, -0.577, -0.577, 0.577
 846, 76, 0.577, -0.577, 0.577
 847, 133, -0.577, -0.577, 0.577
 848, 71, 0.577, 0.577, 0.577
 849, 133, -0.577, 0.577, 0.577
 850, 107, -0.577, 0.577, 0.577
 851, 107, 0.577, 0.577, 0.577
 852, 107, 0.577, -0.577, 0.577
 853, 107, -0.577, -0.577, 0.577
 854, 81, 0.577, -0.577, 0.577
 855, 139, -0.577, -0.577, 0.577
 856, 76, 0.577, 0.577, 0.577
 857, 139, -0.577, 0.577, 0.577
 858, 112, -0.577, 0.577, 0.577
 859, 112, 0.577, 0.577, 0.577
 860, 112, 0.577, -0.577, 0.577
 861, 112, -0.577, -0.577, 0.577
 862, 86, 0.577, -0.577, 0.577
 863, 145, -0.577, -0.577, 0.577
 864, 81, 0.577, 0.577, 0.577
 865, 145, -0.577, 0.577, 0.577
 866, 117, -0.577, 0.577, 0.577
 867, 117, 0.577, 0.577, 0.577
 868, 117, 0.577, -0.577, 0.577
 869, 117, -0.577, -0.577, 0.577
 870, 91, 0.577, -0.577, 0.577
 871, 150, -0.577, -0.577, 0.577
 872, 86, 0.577, 0.577, 0.577
 873, 150, -0.577, 0.577, 0.577
 874, 122, -0.577, 0.577, 0.577
 875, 122, 0.577, 0.577, 0.577
 876, 122, 0.577, -0.577, 0.577
 877, 122, -0.577, -0.577, 0.577
 878, 96, 0.577, -0.577, 0.577
 879, 157, -0.577, -0.577, 0.577
 880, 91, 0.577, 0.577, 0.577
 881, 188, -0.577, 0.577, 0.577
 882, 163, -0.577, 0.577, 0.577
 883, 163, 0.577, 0.577, 0.577
 884, 163, 0.577, -0.577, 0.577
 885, 163, -0.577, -0.577, 0.577
 886, 133, 0.577, -0.577, 0.577
 887, 194, -0.577, -0.577, 0.577
 888, 127, 0.577, 0.577, 0.577
 889, 194, -0.577, 0.577, 0.577
 890, 168, -0.577, 0.577, 0.577
 891, 168, 0.577, 0.577, 0.577
 892, 168, 0.577, -0.577, 0.577
 893, 168, -0.577, -0.577, 0.577
 894, 139, 0.577, -0.577, 0.577
 895, 200, -0.577, -0.577, 0.577
 896, 133, 0.577, 0.577, 0.577
 897, 200, -0.577, 0.577, 0.577
 898, 173, -0.577, 0.577, 0.577
 899, 173, 0.577, 0.577, 0.577
 900, 173, 0.577, -0.577, 0.577
 901, 173, -0.577, -0.577, 0.577
 902, 145, 0.577, -0.577, 0.577
 903, 206, -0.577, -0.577, 0.577
 904, 139, 0.577, 0.577, 0.577
 905, 206, -0.577, 0.577, 0.577
 906, 178, -0.577, 0.577, 0.577
 907, 178, 0.577, 0.577, 0.577
 908, 178, 0.577, -0.577, 0.577
 909, 178, -0.577, -0.577, 0.577
 910, 150, 0.577, -0.577, 0.577
 911, 211, -0.577, -0.577, 0.577
 912, 145, 0.577, 0.577, 0.577
 913, 211, -0.577, 0.577, 0.577
 914, 183, -0.577, 0.577, 0.577
 915, 183, 0.577, 0.577, 0.577
 916, 183, 0.577, -0.577, 0.577
 917, 183, -0.577, -0.577, 0.577
 918, 157, 0.577, -0.577, 0.577
 919, 218, -0.577, -0.577, 0.577
 920, 150, 0.577, 0.577, 0.577
 921, 248, -0.577, 0.577, 0.577
 922, 224, -0.577, 0.577, 0.577
 923, 224, 0.577, 0.577, 0.577
 924, 224, 0.577, -0.577, 0.577
 925, 224, -0.577, -0.577, 0.577
 926, 194, 0.577, -0.577, 0.577
 927, 253, -0.577, -0.577, 0.577
 928, 188, 0.577, 0.577, 0.577
 929, 253, -0.577, 0.577, 0.577
 930, 229, -0.577, 0.577, 0.577
 931, 229, 0.577, 0.577, 0.577
 932, 229, 0.577, -0.577, 0.577
 933, 229, -0.577, -0.577, 0.577
 934, 200, 0.577, -0.577, 0.577
 935, 258, -0.577, -0.577, 0.577
 936, 194, 0.577, 0.577, 0.577
 937, 258, -0.577, 0.577, 0.577
 938, 234, -0.577, 0.577, 0.577
 939, 234, 0.577, 0.577, 0.577
 940, 234, 0.577, -0.577, 0.577
 941, 234, -0.577, -0.577, 0.577
 942, 206, 0.577, -0.577, 0.577
 943, 263, -0.577, -0.577, 0.577
 944, 200, 0.577, 0.577, 0.577
 945, 263, -0.577, 0.577, 0.577
 946, 239, -0.577, 0.577, 0.577
 947, 239, 0.577, 0.577, 0.577
 948, 239, 0.577, -0.577, 0.577
 949, 239, -0.577, -0.577, 0.577
 950, 211, 0.577, -0.577, 0.577
 951, 268, -0.577, -0.577, 0.577
 952, 206, 0.577, 0.577, 0.577
 953, 268, -0.577, 0.577, 0.577
 954, 244, -0.577, 0.577, 0.577
 955, 244, 0.577, 0.577, 0.577
 956, 244, 0.577, -0.577, 0.577
 957, 244, -0.577, -0.577, 0.577
 958, 218, 0.577, -0.577, 0.577
 959, 273, -0.577, -0.577, 0.577
 960, 211, 0.577, 0.577, 0.577
 961, 310, -0.577, 0.577, 0.577
 962, 285, -0.577, 0.577, 0.577
 963, 285, 0.577, 0.577, 0.577
 964, 285, 0.577, -0.577, 0.577
 965, 285, -0.577, -0.577, 0.577
 966, 253, 0.577, -0.577, 0.577
 967, 316, -0.577, -0.577, 0.577
 968, 248, 0.577, 0.577, 0.577
 969, 316, -0.577, 0.577, 0.577
 970, 290, -0.577, 0.577, 0.577
 971, 290, 0.577, 0.577, 0.577
 972, 290, 0.577, -0.577, 0.577
 973, 290, -0.577, -0.577, 0.577
 974, 258, 0.577, -0.577, 0.577
 975, 322, -0.577, -0.577, 0.577
 976, 253, 0.577, 0.577, 0.577
 977, 322, -0.577, 0.577, 0.577
 978, 295, -0.577, 0.577, 0.577
 979, 295, 0.577, 0.577, 0.577
 980, 295, 0.577, -0.577, 0.577
 981, 295, -0.577, -0.577, 0.577
 982, 263, 0.577, -0.577, 0.577
 983, 328, -0.577, -0.577, 0.577
 984, 258, 0.577, 0.577, 0.577
 985, 328, -0.577, 0.577, 0.577
 986, 300, -0.577, 0.577, 0.577
 987, 300, 0.577, 0.577, 0.577
 988, 300, 0.577, -0.577, 0.577
 989, 300, -0.577, -0.577, 0.577
 990, 268, 0.577, -0.577, 0.577
 991, 333, -0.577, -0.577, 0.577
 992, 263, 0.577, 0.577, 0.577
 993, 333, -0.577, 0.577, 0.577
 994, 305, -0.577, 0.577, 0.577
 995, 305, 0.577, 0.577, 0.577
 996, 305, 0.577, -0.577, 0.577
 997, 305, -0.577, -0.577, 0.577
 998, 273, 0.577, -0.577, 0.577
 999, 340, -0.577, -0.577, 0.577
 1000, 268, 0.577, 0.577, 0.577
*BEAM SECTION,MATERIAL=Mexample,ELSET=Eexample,SECTION=CIRC
0.5,0.5
