**INP GENERATOR - CRYSTALLON 
**FILENAME = C3D4example
*NODE,NSET=NC3D4example
 1, -3.906, -6.509, 6.509
 2, -1.4, -7.001, 7.001
 3, 1.4, -7.001, 7.001
 4, -4.575, -4.575, 7.625
 5, -1.69, -5.071, 8.452
 6, 1.69, -5.071, 8.452
 7, 4.575, -4.575, 7.625
 8, 6.509, -3.906, 6.509
 9, -7.001, -1.4, 7.001
 10, -5.071, -1.69, 8.452
 11, -1.925, -1.925, 9.623
 12, 1.925, -1.925, 9.623
 13, 5.071, -1.69, 8.452
 14, -5.071, 1.69, 8.452
 15, -1.925, 1.925, 9.623
 16, 1.925, 1.925, 9.623
 17, 5.071, 1.69, 8.452
 18, -6.509, 3.906, 6.509
 19, -4.575, 4.575, 7.625
 20, -1.69, 5.071, 8.452
 21, 1.69, 5.071, 8.452
 22, 4.575, 4.575, 7.625
 23, 6.509, 3.906, 6.509
 24, -5.774, 5.774, 5.774
 25, 3.906, 6.509, 6.509
 26, 5.774, 5.774, 5.774
 27, 7.001, -7.001, 1.4
 28, 6.509, -6.509, -3.906
 29, 5.774, -5.774, -5.774
 30, 7.625, -4.575, 4.575
 31, 8.452, -5.071, 1.69
 32, 8.452, -5.071, -1.69
 33, 7.625, -4.575, -4.575
 34, 7.001, -1.4, 7.001
 35, 8.452, -1.69, 5.071
 36, 9.623, -1.925, 1.925
 37, 9.623, -1.925, -1.925
 38, 8.452, -1.69, -5.071
 39, 7.001, -1.4, -7.001
 40, 7.001, 1.4, 7.001
 41, 8.452, 1.69, 5.071
 42, 9.623, 1.925, 1.925
 43, 9.623, 1.925, -1.925
 44, 8.452, 1.69, -5.071
 45, 7.001, 1.4, -7.001
 46, 7.625, 4.575, 4.575
 47, 8.452, 5.071, 1.69
 48, 8.452, 5.071, -1.69
 49, 7.625, 4.575, -4.575
 50, 6.509, 3.906, -6.509
 51, 7.001, 7.001, 1.4
 52, 6.509, 6.509, -3.906
 53, 1.4, -7.001, -7.001
 54, 6.509, -3.906, -6.509
 55, 4.575, -4.575, -7.625
 56, 1.69, -5.071, -8.452
 57, -1.69, -5.071, -8.452
 58, -4.575, -4.575, -7.625
 59, 5.071, -1.69, -8.452
 60, 1.925, -1.925, -9.623
 61, -1.925, -1.925, -9.623
 62, -5.071, -1.69, -8.452
 63, -7.001, -1.4, -7.001
 64, 5.071, 1.69, -8.452
 65, 1.925, 1.925, -9.623
 66, -1.925, 1.925, -9.623
 67, -5.071, 1.69, -8.452
 68, 4.575, 4.575, -7.625
 69, 1.69, 5.071, -8.452
 70, -1.69, 5.071, -8.452
 71, -4.575, 4.575, -7.625
 72, -6.509, 3.906, -6.509
 73, 5.774, 5.774, -5.774
 74, 1.4, 7.001, -7.001
 75, -1.4, 7.001, -7.001
 76, -3.906, 6.509, -6.509
 77, -6.509, -6.509, 3.906
 78, -6.509, -3.906, -6.509
 79, -7.625, -4.575, -4.575
 80, -8.452, -5.071, -1.69
 81, -8.452, -5.071, 1.69
 82, -7.625, -4.575, 4.575
 83, -6.509, -3.906, 6.509
 84, -8.452, -1.69, -5.071
 85, -9.623, -1.925, -1.925
 86, -9.623, -1.925, 1.925
 87, -8.452, -1.69, 5.071
 88, -7.001, 1.4, -7.001
 89, -8.452, 1.69, -5.071
 90, -9.623, 1.925, -1.925
 91, -9.623, 1.925, 1.925
 92, -8.452, 1.69, 5.071
 93, -7.001, 1.4, 7.001
 94, -7.625, 4.575, -4.575
 95, -8.452, 5.071, -1.69
 96, -8.452, 5.071, 1.69
 97, -7.625, 4.575, 4.575
 98, -5.774, 5.774, -5.774
 99, -7.001, 7.001, -1.4
 100, -7.001, 7.001, 1.4
 101, -6.509, 6.509, 3.906
 102, 7.001, -7.001, -1.4
 103, 6.509, -6.509, 3.906
 104, 5.774, -5.774, 5.774
 105, 3.906, -6.509, -6.509
 106, 4.575, -7.625, -4.575
 107, 5.071, -8.452, -1.69
 108, 5.071, -8.452, 1.69
 109, 4.575, -7.625, 4.575
 110, 3.906, -6.509, 6.509
 111, 1.69, -8.452, -5.071
 112, 1.925, -9.623, -1.925
 113, 1.925, -9.623, 1.925
 114, 1.69, -8.452, 5.071
 115, -1.4, -7.001, -7.001
 116, -1.69, -8.452, -5.071
 117, -1.925, -9.623, -1.925
 118, -1.925, -9.623, 1.925
 119, -1.69, -8.452, 5.071
 120, -3.906, -6.509, -6.509
 121, -4.575, -7.625, -4.575
 122, -5.071, -8.452, -1.69
 123, -5.071, -8.452, 1.69
 124, -4.575, -7.625, 4.575
 125, -5.774, -5.774, -5.774
 126, -6.509, -6.509, -3.906
 127, -7.001, -7.001, -1.4
 128, -7.001, -7.001, 1.4
 129, -5.774, -5.774, 5.774
 130, -6.509, 6.509, -3.906
 131, -4.575, 7.625, -4.575
 132, -5.071, 8.452, -1.69
 133, -5.071, 8.452, 1.69
 134, -4.575, 7.625, 4.575
 135, -3.906, 6.509, 6.509
 136, -1.69, 8.452, -5.071
 137, -1.925, 9.623, -1.925
 138, -1.925, 9.623, 1.925
 139, -1.69, 8.452, 5.071
 140, -1.4, 7.001, 7.001
 141, 1.69, 8.452, -5.071
 142, 1.925, 9.623, -1.925
 143, 1.925, 9.623, 1.925
 144, 1.69, 8.452, 5.071
 145, 1.4, 7.001, 7.001
 146, 3.906, 6.509, -6.509
 147, 4.575, 7.625, -4.575
 148, 5.071, 8.452, -1.69
 149, 5.071, 8.452, 1.69
 150, 4.575, 7.625, 4.575
 151, 7.001, 7.001, -1.4
 152, 6.509, 6.509, 3.906
 153, 0, 0, 0
 154, 1.603, 4.516, -1.8
 155, -3.403, 2.809, -2.448
 156, -5.169, 4.267, -3.718
 157, -2.809, -2.046, -3.644
 158, -4.051, 0.805, -5.232
 159, -5.023, 2.002, 1.784
 160, -1.848, 5.216, -4.195
 161, -1.8, -0.617, 4.713
 162, 2.448, -2.92, 3.293
 163, 3.372, 1.485, 4.192
 164, -5.729, 0, 4.304
 165, 3.967, -5.521, 2.264
 166, -2.028, 5.239, 1.045
 167, 0, 2.357, 6.333
 168, 2.486, -6.061, 4.355
 169, 5.635, -2.097, 0
 170, 1.603, -4.311, -2.141
 171, 1.964, 4.46, 5.544
 172, -4.6, 6.124, 0
 173, 4.262, -5.495, -0.89
 174, -1.842, -4.661, 1.445
 175, 3.063, 0.163, -4.045
 176, -2.032, -5.644, -2.412
 177, 5.402, -1.914, -4.346
 178, 5.071, 0, -8.452
 179, 0.906, -6.505, 1.481
 180, 3.58, -4.977, -4.108
 181, -3.251, -3.763, 4.488
 182, 0.522, -4.12, -5.38
 183, -4.64, 2.044, 5.769
 184, 6.034, -4.336, -2.475
 185, -3.332, 4.481, 3.976
 186, -4.618, -2.034, -5.741
 187, -6.412, 1.475, -2.496
 188, 2.621, -0.845, -6.873
 189, 0.278, 2.839, 2.671
 190, 0, 4.689, -6.243
 191, 5.069, 3.646, 4.184
 192, -5.362, -2.336, 0
 193, -6.039, 4.339, 2.477
 194, -0.423, 0.281, -5.17
 195, -4.17, -5.648, 2.639
 196, 3.461, 3.151, 0.985
 197, 5.507, -2.258, 3.957
 198, -4.466, -4.453, -3.514
 199, 1.925, 0, -9.623
 200, 0, -4.27, 5.685
 201, 4.672, 0, 6.219
 202, 4.549, 2.004, -5.655
 203, -4.486, -5.769, -1.011
 204, -2.403, -4.115, -5.695
 205, 2.691, 4.136, -5.559
 206, -5.75, -1.497, -2.933
 207, 3.866, -4.437, 5.375
 208, 0, 6.258, 4.701
 209, 0, 1.925, -9.623
 210, 2.338, 6.585, 2.625
 211, 3.745, 0.845, -7.14
 212, -0.962, 2.23, -7.052
 213, 4.536, 2.745, -2.277
 214, 0, -1.925, -9.623
 215, 4.354, 4.985, -3.68
 216, 5.412, -0.146, -5.857
 217, 5.737, 4.56, 1.665
 218, -5.717, -2.698, 4.23
 219, 0, -5.071, -8.452
 220, -3.696, -1.288, 2.375
 221, 1.383, -0.689, 5.848
 222, 6.445, 1.338, 0.361
 223, -9.623, 1.925, 0
 224, -8.452, 5.071, 0
 225, -0.845, -5.08, -6.594
 226, 0, -8.452, -5.071
 227, -1.737, -6.133, -4.692
 228, 0.845, -6.332, -4.883
 229, -0.962, -1.943, -6.912
 230, 1.584, 0.962, -7.648
 231, 4.384, 5.684, -0.764
 232, 0, -9.623, -1.925
 233, 1.925, -9.623, 0
 234, -7.317, 0, 0.962
 235, 0.962, -7.022, -2.187
 236, 5.589, 0.52, -3.287
 237, 3.954, 0.217, -0.819
 238, 0, -9.623, 1.925
 239, 2.281, 1.675, -5.582
 240, -1.925, -9.623, 0
 241, -0.962, -7.758, 0.962
 242, -5.071, -8.452, 0
 243, -7.36, 2.533, 0.962
 244, -9.623, 0, -1.925
 245, -6.33, 4.882, -0.845
 246, -3.283, -7.033, 0.845
 247, -1.925, 0, -9.623
 248, 5.071, -8.452, 0
 249, -9.623, 0, 1.925
 250, -9.623, -1.925, 0
 251, -7.43, -1.486, -0.962
 252, 2.134, 2.37, -3.112
 253, -5.071, 0, -8.452
 254, -0.962, -7.709, -1.275
 255, -6.949, 4.351, 0.845
 256, -1.074, -6.45, 3.341
 257, -0.522, 2.401, -1.72
 258, -7.898, 0.962, -0.962
 259, -4.719, 3.957, 0.668
 260, -8.452, -5.071, 0
 261, 5.056, -6.562, 0.845
 262, -6.945, -3.66, -0.845
 263, -7.001, 0, -7.001
 264, -0.17, -5.35, -0.569
 265, -2.621, 2.05, 0.21
 266, -6.428, -0.7, -4.933
 267, -1.547, -2.569, -0.844
 268, 8.452, -5.071, 0
 269, 5.25, -4.245, 0.804
 270, 2.864, -7.334, -0.002
 271, -6.432, -4.958, 0.845
 272, 3.241, -3.101, -0.465
 273, 9.623, -1.925, 0
 274, -8.452, 0, -5.071
 275, -5.75, 0.7, -5.88
 276, -7.086, 0.845, -4.119
 277, -7.349, -2.737, 1.408
 278, 1.515, -1.382, -2.094
 279, -5.127, 2.72, -5.279
 280, 9.623, 0, 1.925
 281, 9.623, 0, -1.925
 282, 7.177, -0.962, -1.804
 283, 8.452, 0, 5.071
 284, 9.623, 1.925, 0
 285, 6.171, 0.845, 3.31
 286, 7.583, -0.962, 0.962
 287, 7.865, 0.962, -1.188
 288, 6.924, -0.845, 4.083
 289, -2.553, 2.909, -5.129
 290, 6.785, 3.235, -1.258
*ELEMENT,TYPE=C3D4,ELSET=EC3D4example
1, 170, 267, 272, 278
2, 176, 246, 254, 264
3, 193, 159, 255, 259
4, 61, 62, 229, 247
5, 11, 5, 181, 200
6, 192, 198, 203, 262
7, 192, 234, 251, 277
8, 129, 124, 77, 195
9, 188, 182, 194, 229
10, 155, 157, 257, 265
11, 177, 169, 184, 282
12, 234, 86, 250, 277
13, 155, 160, 257, 289
14, 194, 190, 212, 289
15, 157, 158, 194, 229
16, 121, 117, 116, 176
17, 59, 178, 188, 216
18, 25, 22, 171, 191
19, 192, 157, 265, 267
20, 161, 159, 164, 183
21, 164, 159, 220, 234
22, 153, 174, 220, 267
23, 49, 50, 202, 215
24, 169, 222, 237, 285
25, 174, 179, 241, 264
26, 175, 202, 211, 239
27, 217, 47, 222, 290
28, 127, 128, 203, 271
29, 199, 247, 230, 209
30, 77, 82, 195, 271
31, 136, 74, 141, 190
32, 23, 26, 46, 191
33, 185, 159, 259, 265
34, 79, 78, 186, 198
35, 156, 155, 187, 279
36, 263, 63, 266, 274
37, 18, 19, 14, 183
38, 159, 234, 243, 258
39, 165, 162, 197, 269
40, 161, 181, 218, 220
41, 72, 98, 156, 279
42, 202, 175, 211, 216
43, 115, 53, 219, 225
44, 134, 101, 133, 193
45, 142, 143, 210, 231
46, 22, 16, 21, 171
47, 195, 203, 246, 271
48, 160, 155, 166, 172
49, 93, 18, 14, 183
50, 167, 161, 185, 189
51, 126, 127, 122, 203
52, 197, 169, 285, 286
53, 62, 63, 186, 253
54, 103, 108, 165, 261
55, 114, 168, 179, 256
56, 82, 87, 218, 277
57, 100, 101, 96, 193
58, 20, 21, 171, 208
59, 248, 108, 261, 270
60, 3, 110, 168, 207
61, 122, 117, 121, 176
62, 203, 192, 262, 271
63, 138, 143, 208, 210
64, 197, 31, 269, 286
65, 214, 229, 230, 247
66, 25, 145, 144, 171
67, 226, 115, 227, 228
68, 158, 67, 275, 279
69, 108, 165, 261, 270
70, 121, 120, 198, 227
71, 143, 137, 142, 166
72, 153, 194, 257, 278
73, 173, 248, 261, 270
74, 40, 23, 191, 201
75, 181, 1, 195, 256
76, 212, 194, 229, 230
77, 173, 107, 248, 270
78, 101, 134, 24, 185
79, 123, 128, 77, 195
80, 155, 166, 259, 265
81, 169, 222, 285, 286
82, 218, 192, 271, 277
83, 158, 186, 266, 275
84, 26, 25, 150, 191
85, 38, 54, 33, 177
86, 69, 65, 205, 230
87, 235, 179, 254, 270
88, 143, 138, 166, 210
89, 183, 24, 193, 18
90, 64, 45, 202, 211
91, 92, 97, 183, 193
92, 29, 177, 180, 184
93, 56, 53, 182, 225
94, 261, 27, 268, 269
95, 123, 128, 195, 246
96, 99, 132, 133, 172
97, 105, 56, 53, 182
98, 79, 198, 206, 262
99, 165, 113, 168, 179
100, 99, 130, 172, 245
101, 188, 214, 229, 230
102, 162, 161, 174, 200
103, 250, 85, 251, 262
104, 161, 15, 167, 183
105, 129, 83, 4, 181
106, 85, 276, 244, 251
107, 50, 73, 202, 215
108, 11, 5, 4, 181
109, 194, 155, 257, 289
110, 159, 183, 185, 193
111, 16, 17, 167, 171
112, 223, 250, 244, 258
113, 171, 150, 191, 210
114, 5, 1, 4, 181
115, 59, 39, 178, 216
116, 141, 154, 205, 215
117, 205, 190, 239, 252
118, 95, 90, 187, 258
119, 147, 142, 141, 154
120, 209, 69, 212, 230
121, 250, 260, 262, 277
122, 186, 63, 266, 275
123, 154, 160, 190, 252
124, 120, 115, 225, 227
125, 49, 202, 213, 215
126, 59, 60, 55, 188
127, 10, 14, 161, 183
128, 196, 217, 222, 290
129, 152, 26, 150, 191
130, 174, 161, 181, 200
131, 176, 227, 228, 235
132, 185, 166, 189, 265
133, 48, 47, 217, 290
134, 78, 63, 84, 266
135, 234, 250, 251, 277
136, 83, 9, 10, 218
137, 95, 224, 243, 245
138, 235, 176, 254, 264
139, 232, 233, 235, 254
140, 149, 142, 148, 231
141, 97, 101, 24, 193
142, 240, 118, 241, 246
143, 149, 143, 142, 231
144, 85, 79, 84, 206
145, 17, 22, 163, 171
146, 106, 107, 28, 173
147, 106, 173, 180, 235
148, 113, 114, 109, 168
149, 222, 169, 282, 286
150, 54, 29, 177, 180
151, 64, 45, 211, 216
152, 54, 55, 29, 180
153, 125, 120, 58, 204
154, 192, 157, 198, 206
155, 154, 142, 166, 210
156, 168, 162, 179, 256
157, 70, 75, 160, 190
158, 175, 188, 194, 239
159, 40, 23, 41, 191
160, 144, 171, 208, 210
161, 126, 121, 198, 203
162, 174, 192, 220, 267
163, 181, 195, 218, 220
164, 13, 201, 207, 221
165, 31, 30, 197, 269
166, 5, 2, 1, 181
167, 114, 179, 238, 256
168, 280, 35, 283, 288
169, 131, 156, 160, 172
170, 68, 64, 202, 211
171, 115, 53, 225, 228
172, 19, 167, 183, 185
173, 152, 191, 210, 217
174, 233, 232, 241, 254
175, 45, 44, 202, 216
176, 192, 187, 206, 251
177, 19, 167, 15, 183
178, 11, 12, 200, 221
179, 153, 196, 252, 257
180, 28, 33, 29, 184
181, 187, 158, 276, 279
182, 114, 3, 168, 256
183, 132, 138, 133, 172
184, 91, 223, 234, 249
185, 86, 87, 234, 249
186, 24, 101, 185, 193
187, 105, 106, 29, 180
188, 191, 196, 210, 217
189, 26, 152, 46, 191
190, 24, 19, 183, 185
191, 153, 189, 257, 265
192, 206, 85, 276, 84
193, 107, 102, 173, 261
194, 196, 210, 217, 231
195, 159, 164, 183, 193
196, 223, 95, 243, 258
197, 212, 194, 230, 239
198, 229, 158, 247, 253
199, 41, 23, 46, 191
200, 132, 130, 131, 156
201, 164, 92, 183, 193
202, 30, 165, 197, 269
203, 109, 103, 165, 207
204, 37, 33, 32, 184
205, 54, 59, 55, 177
206, 15, 11, 161, 167
207, 243, 95, 245, 258
208, 179, 233, 238, 241
209, 165, 113, 179, 270
210, 114, 110, 109, 168
211, 10, 161, 181, 218
212, 222, 213, 236, 237
213, 99, 130, 132, 172
214, 162, 165, 168, 179
215, 101, 134, 185, 193
216, 148, 154, 142, 147
217, 157, 153, 265, 267
218, 157, 155, 158, 206
219, 280, 283, 285, 288
220, 139, 134, 166, 185
221, 22, 163, 171, 191
222, 97, 24, 18, 193
223, 141, 147, 154, 215
224, 202, 205, 211, 239
225, 192, 195, 218, 271
226, 172, 193, 255, 259
227, 21, 16, 167, 171
228, 25, 22, 21, 171
229, 14, 15, 161, 183
230, 1, 129, 4, 181
231, 55, 105, 180, 182
232, 157, 176, 198, 204
233, 43, 44, 287, 290
234, 206, 192, 251, 262
235, 127, 203, 262, 271
236, 250, 234, 251, 258
237, 55, 56, 105, 182
238, 100, 99, 172, 245
239, 40, 201, 285, 288
240, 94, 95, 90, 187
241, 155, 172, 245, 259
242, 167, 171, 189, 208
243, 15, 20, 21, 167
244, 35, 30, 197, 288
245, 197, 8, 201, 207
246, 9, 83, 87, 218
247, 125, 126, 121, 198
248, 157, 153, 194, 257
249, 202, 73, 205, 215
250, 188, 199, 214, 230
251, 28, 106, 173, 180
252, 158, 155, 194, 289
253, 59, 55, 177, 188
254, 36, 30, 35, 288
255, 90, 89, 187, 276
256, 90, 187, 258, 276
257, 8, 13, 201, 207
258, 8, 34, 197, 201
259, 211, 205, 230, 239
260, 175, 177, 216, 236
261, 161, 159, 189, 265
262, 195, 192, 218, 220
263, 92, 93, 9, 164
264, 121, 122, 176, 203
265, 222, 169, 237, 282
266, 179, 235, 264, 270
267, 174, 195, 203, 246
268, 120, 57, 58, 204
269, 83, 129, 82, 218
270, 267, 153, 272, 278
271, 107, 102, 28, 173
272, 176, 174, 203, 246
273, 154, 189, 196, 210
274, 145, 25, 21, 171
275, 190, 212, 230, 239
276, 155, 157, 194, 257
277, 89, 94, 90, 187
278, 182, 175, 188, 194
279, 163, 171, 191, 196
280, 142, 143, 166, 210
281, 75, 74, 136, 190
282, 201, 162, 207, 221
283, 141, 154, 190, 205
284, 251, 250, 262, 277
285, 18, 93, 92, 183
286, 92, 93, 164, 183
287, 78, 79, 186, 266
288, 33, 54, 29, 177
289, 159, 187, 192, 234
290, 217, 196, 231, 290
291, 165, 30, 207, 103
292, 155, 158, 187, 279
293, 22, 25, 26, 191
294, 36, 31, 197, 286
295, 159, 92, 164, 193
296, 124, 129, 1, 195
297, 38, 44, 236, 282
298, 169, 162, 237, 272
299, 49, 213, 236, 290
300, 10, 11, 4, 181
301, 23, 22, 26, 191
302, 43, 44, 281, 287
303, 134, 133, 185, 193
304, 107, 173, 235, 270
305, 161, 153, 174, 220
306, 171, 189, 208, 210
307, 155, 156, 160, 289
308, 17, 16, 167, 201
309, 73, 146, 205, 215
310, 175, 237, 252, 278
311, 133, 101, 100, 193
312, 179, 174, 241, 256
313, 160, 154, 166, 257
314, 95, 94, 156, 187
315, 162, 153, 237, 272
316, 23, 17, 22, 191
317, 130, 95, 156, 245
318, 166, 138, 208, 210
319, 39, 45, 178, 216
320, 151, 215, 148, 52
321, 157, 186, 198, 206
322, 182, 157, 194, 229
323, 39, 54, 38, 177
324, 101, 97, 96, 193
325, 109, 103, 108, 165
326, 156, 155, 279, 289
327, 171, 163, 189, 196
328, 158, 155, 187, 206
329, 159, 161, 164, 220
330, 136, 141, 160, 190
331, 281, 44, 282, 287
332, 132, 137, 138, 172
333, 144, 138, 143, 208
334, 189, 154, 196, 257
335, 163, 17, 167, 201
336, 24, 135, 19, 185
337, 196, 163, 237, 285
338, 159, 187, 243, 259
339, 68, 202, 205, 211
340, 134, 139, 135, 185
341, 151, 51, 148, 231
342, 212, 67, 247, 253
343, 166, 133, 172, 185
344, 143, 144, 208, 210
345, 266, 263, 274, 275
346, 167, 161, 183, 185
347, 159, 243, 255, 259
348, 163, 153, 189, 196
349, 205, 190, 230, 239
350, 173, 170, 180, 235
351, 82, 195, 129, 77
352, 167, 20, 171, 208
353, 195, 82, 129, 218
354, 54, 39, 59, 177
355, 45, 202, 211, 216
356, 215, 151, 148, 231
357, 156, 155, 160, 172
358, 133, 100, 172, 193
359, 135, 20, 19, 185
360, 154, 137, 160, 166
361, 92, 91, 234, 249
362, 155, 160, 166, 257
363, 134, 133, 166, 185
364, 162, 197, 201, 207
365, 189, 166, 208, 210
366, 196, 213, 222, 237
367, 121, 176, 198, 203
368, 25, 150, 171, 210
369, 90, 223, 244, 258
370, 105, 180, 182, 228
371, 159, 192, 220, 234
372, 3, 168, 200, 207
373, 5, 2, 181, 200
374, 171, 191, 196, 210
375, 194, 158, 212, 229
376, 160, 190, 252, 257
377, 71, 76, 279, 289
378, 182, 176, 204, 227
379, 187, 155, 245, 259
380, 237, 153, 252, 278
381, 87, 92, 164, 249
382, 31, 169, 269, 286
383, 82, 218, 271, 277
384, 75, 70, 69, 190
385, 158, 212, 229, 247
386, 98, 76, 131, 156
387, 55, 54, 177, 180
388, 109, 165, 168, 207
389, 192, 218, 220, 277
390, 210, 149, 217, 231
391, 60, 56, 55, 188
392, 124, 123, 77, 195
393, 161, 159, 185, 189
394, 45, 64, 178, 216
395, 164, 161, 218, 220
396, 135, 140, 20, 185
397, 74, 75, 69, 190
398, 53, 105, 182, 228
399, 194, 188, 229, 230
400, 223, 234, 249, 258
401, 93, 9, 164, 183
402, 154, 166, 189, 210
403, 139, 134, 138, 166
404, 11, 10, 161, 181
405, 100, 224, 245, 255
406, 175, 177, 180, 188
407, 153, 162, 174, 267
408, 158, 275, 276, 279
409, 158, 67, 212, 253
410, 159, 92, 193, 243
411, 149, 152, 210, 217
412, 24, 134, 135, 185
413, 36, 280, 286, 288
414, 213, 49, 215, 290
415, 148, 215, 154, 147
416, 223, 91, 234, 243
417, 51, 151, 217, 231
418, 126, 125, 79, 198
419, 173, 28, 180, 184
420, 76, 70, 75, 160
421, 29, 33, 177, 184
422, 186, 158, 253, 275
423, 115, 225, 227, 228
424, 192, 262, 271, 277
425, 236, 222, 282, 287
426, 139, 138, 144, 208
427, 137, 132, 131, 160
428, 163, 167, 171, 189
429, 142, 136, 141, 160
430, 197, 169, 237, 285
431, 22, 17, 16, 171
432, 168, 3, 200, 256
433, 19, 15, 14, 183
434, 10, 9, 164, 218
435, 116, 121, 176, 227
436, 14, 15, 10, 161
437, 179, 235, 254, 264
438, 177, 38, 216, 236
439, 21, 145, 171, 208
440, 137, 136, 142, 160
441, 161, 159, 183, 185
442, 74, 141, 190, 205
443, 185, 167, 189, 208
444, 44, 202, 216, 236
445, 49, 52, 215, 290
446, 157, 153, 257, 265
447, 68, 65, 64, 211
448, 78, 58, 62, 186
449, 148, 154, 231, 142
450, 213, 222, 236, 290
451, 30, 36, 31, 197
452, 212, 209, 230, 247
453, 175, 202, 213, 236
454, 76, 136, 131, 160
455, 186, 157, 198, 204
456, 122, 203, 242, 246
457, 222, 47, 284, 290
458, 83, 10, 4, 218
459, 56, 182, 219, 225
460, 192, 174, 195, 203
461, 99, 133, 100, 172
462, 187, 243, 245, 258
463, 241, 179, 254, 264
464, 92, 9, 87, 164
465, 1, 129, 181, 195
466, 57, 204, 225, 229
467, 222, 280, 285, 286
468, 12, 6, 200, 221
469, 166, 154, 189, 257
470, 190, 194, 212, 239
471, 60, 188, 214, 229
472, 146, 141, 205, 215
473, 144, 25, 171, 210
474, 158, 67, 253, 275
475, 186, 79, 198, 206
476, 182, 219, 225, 229
477, 188, 178, 211, 216
478, 44, 49, 236, 290
479, 174, 241, 246, 264
480, 162, 165, 197, 207
481, 260, 127, 262, 271
482, 16, 15, 21, 167
483, 274, 266, 275, 276
484, 130, 156, 172, 245
485, 192, 220, 234, 277
486, 95, 187, 245, 258
487, 170, 176, 228, 235
488, 33, 38, 177, 184
489, 246, 241, 254, 264
490, 120, 57, 204, 225
491, 81, 86, 82, 277
492, 153, 157, 194, 278
493, 206, 158, 266, 276
494, 180, 55, 182, 188
495, 57, 115, 219, 225
496, 113, 108, 165, 168
497, 3, 110, 114, 168
498, 233, 235, 254, 270
499, 68, 65, 211, 230
500, 176, 174, 264, 267
501, 112, 107, 235, 270
502, 273, 36, 280, 286
503, 113, 114, 168, 179
504, 20, 21, 167, 171
505, 106, 28, 29, 180
506, 161, 11, 181, 200
507, 59, 60, 188, 199
508, 213, 215, 231, 290
509, 159, 185, 189, 265
510, 113, 109, 108, 168
511, 63, 78, 186, 266
512, 155, 158, 279, 289
513, 131, 132, 156, 172
514, 65, 69, 209, 230
515, 161, 153, 162, 174
516, 125, 58, 198, 204
517, 102, 32, 184, 268
518, 200, 6, 207, 221
519, 285, 197, 286, 288
520, 67, 88, 275, 279
521, 158, 186, 206, 266
522, 60, 188, 199, 214
523, 19, 20, 167, 185
524, 65, 199, 211, 230
525, 232, 240, 241, 254
526, 130, 98, 131, 156
527, 10, 161, 164, 183
528, 170, 180, 182, 278
529, 179, 113, 233, 270
530, 138, 137, 166, 172
531, 87, 83, 82, 218
532, 182, 176, 227, 228
533, 273, 282, 286, 287
534, 31, 36, 273, 286
535, 227, 226, 228, 235
536, 17, 163, 167, 171
537, 30, 8, 35, 197
538, 152, 46, 191, 217
539, 76, 75, 136, 160
540, 142, 141, 154, 160
541, 78, 125, 186, 198
542, 132, 131, 160, 172
543, 137, 160, 166, 172
544, 30, 165, 207, 197
545, 167, 19, 15, 20
546, 111, 106, 228, 235
547, 275, 89, 276, 279
548, 44, 236, 287, 290
549, 172, 100, 245, 255
550, 97, 18, 92, 183
551, 69, 74, 190, 205
552, 73, 50, 202, 205
553, 198, 192, 206, 262
554, 177, 169, 237, 272
555, 177, 55, 180, 188
556, 222, 284, 287, 290
557, 284, 43, 287, 290
558, 189, 171, 196, 210
559, 244, 250, 251, 258
560, 17, 163, 191, 201
561, 45, 39, 38, 216
562, 113, 179, 233, 238
563, 58, 186, 198, 204
564, 108, 109, 165, 168
565, 164, 92, 234, 249
566, 194, 188, 230, 239
567, 202, 49, 213, 236
568, 142, 137, 154, 166
569, 13, 12, 201, 221
570, 238, 179, 241, 256
571, 157, 182, 204, 229
572, 196, 154, 252, 257
573, 106, 180, 228, 235
574, 62, 229, 247, 253
575, 161, 11, 200, 221
576, 169, 177, 184, 272
577, 34, 35, 197, 288
578, 234, 223, 243, 258
579, 145, 144, 171, 208
580, 125, 58, 78, 186
581, 55, 56, 182, 188
582, 133, 172, 185, 193
583, 157, 153, 267, 278
584, 20, 167, 185, 208
585, 166, 139, 185, 208
586, 120, 125, 198, 204
587, 275, 89, 274, 276
588, 182, 204, 225, 227
589, 159, 161, 220, 265
590, 93, 14, 9, 183
591, 55, 105, 29, 180
592, 141, 154, 160, 190
593, 24, 183, 193, 185
594, 98, 130, 94, 156
595, 169, 273, 282, 286
596, 102, 32, 28, 184
597, 30, 8, 197, 207
598, 113, 114, 179, 238
599, 137, 132, 160, 172
600, 72, 98, 94, 156
601, 136, 137, 131, 160
602, 15, 11, 10, 161
603, 8, 34, 35, 197
604, 28, 29, 180, 184
605, 9, 14, 10, 183
606, 175, 180, 182, 188
607, 50, 68, 202, 205
608, 132, 130, 156, 172
609, 162, 200, 207, 221
610, 188, 178, 199, 211
611, 6, 3, 200, 207
612, 226, 111, 228, 235
613, 219, 57, 225, 229
614, 180, 170, 182, 228
615, 23, 17, 191, 201
616, 110, 109, 168, 207
617, 273, 281, 282, 287
618, 204, 182, 225, 229
619, 138, 137, 143, 166
620, 126, 122, 121, 203
621, 108, 113, 165, 270
622, 9, 10, 164, 183
623, 163, 162, 197, 201
624, 169, 268, 273, 286
625, 177, 180, 184, 272
626, 233, 112, 235, 270
627, 138, 134, 133, 166
628, 197, 36, 286, 288
629, 156, 95, 187, 245
630, 57, 58, 204, 229
631, 81, 82, 271, 277
632, 84, 266, 274, 276
633, 145, 139, 144, 208
634, 199, 188, 211, 230
635, 162, 161, 200, 221
636, 168, 162, 200, 207
637, 214, 61, 229, 247
638, 137, 142, 154, 160
639, 170, 176, 182, 228
640, 63, 78, 62, 186
641, 130, 95, 94, 156
642, 133, 138, 166, 172
643, 22, 17, 163, 191
644, 97, 18, 183, 193
645, 178, 59, 188, 199
646, 76, 131, 156, 160
647, 215, 148, 154, 231
648, 24, 19, 18, 183
649, 139, 135, 185, 208
650, 197, 163, 201, 285
651, 244, 90, 258, 276
652, 196, 213, 231, 290
653, 177, 236, 237, 282
654, 155, 157, 158, 194
655, 165, 162, 168, 207
656, 125, 58, 186, 198
657, 140, 20, 185, 208
658, 75, 136, 160, 190
659, 6, 12, 207, 221
660, 165, 173, 261, 270
661, 170, 157, 176, 267
662, 138, 139, 166, 208
663, 170, 157, 267, 278
664, 150, 25, 171, 191
665, 140, 139, 145, 208
666, 27, 102, 261, 268
667, 32, 33, 28, 184
668, 102, 28, 173, 184
669, 87, 164, 218, 277
670, 205, 68, 211, 230
671, 129, 181, 195, 218
672, 64, 65, 199, 211
673, 9, 87, 164, 218
674, 176, 157, 182, 204
675, 125, 121, 120, 198
676, 79, 125, 78, 198
677, 79, 78, 84, 266
678, 67, 158, 212, 289
679, 153, 189, 196, 257
680, 2, 5, 6, 200
681, 178, 64, 199, 211
682, 5, 12, 6, 200
683, 3, 2, 6, 200
684, 63, 186, 253, 275
685, 5, 11, 12, 200
686, 186, 79, 206, 266
687, 135, 140, 185, 208
688, 34, 13, 40, 201
689, 40, 13, 17, 201
690, 13, 12, 17, 201
691, 34, 197, 201, 288
692, 34, 8, 13, 201
693, 23, 40, 17, 201
694, 17, 12, 16, 201
695, 222, 42, 280, 284
696, 166, 185, 189, 208
697, 147, 52, 148, 215
698, 73, 147, 146, 215
699, 49, 52, 73, 215
700, 50, 68, 64, 202
701, 45, 50, 64, 202
702, 157, 158, 186, 206
703, 70, 69, 190, 212
704, 50, 45, 44, 202
705, 175, 177, 188, 216
706, 49, 50, 44, 202
707, 175, 202, 239, 252
708, 187, 206, 251, 276
709, 199, 65, 209, 230
710, 51, 149, 148, 231
711, 52, 147, 73, 215
712, 69, 190, 212, 230
713, 87, 164, 234, 249
714, 53, 182, 225, 228
715, 73, 146, 68, 205
716, 146, 69, 68, 205
717, 162, 153, 163, 237
718, 74, 146, 141, 205
719, 38, 39, 177, 216
720, 68, 69, 65, 205
721, 73, 68, 50, 205
722, 146, 74, 69, 205
723, 163, 153, 196, 237
724, 174, 162, 264, 267
725, 174, 162, 179, 264
726, 176, 174, 246, 264
727, 110, 7, 104, 207
728, 109, 110, 104, 207
729, 7, 110, 6, 207
730, 104, 7, 8, 207
731, 12, 7, 6, 207
732, 110, 3, 6, 207
733, 8, 7, 13, 207
734, 30, 104, 8, 207
735, 47, 42, 217, 222
736, 30, 103, 104, 207
737, 103, 109, 104, 207
738, 20, 140, 145, 208
739, 139, 140, 135, 208
740, 20, 145, 21, 208
741, 150, 152, 191, 210
742, 83, 4, 181, 218
743, 96, 100, 193, 255
744, 4, 10, 181, 218
745, 150, 144, 143, 210
746, 149, 150, 143, 210
747, 38, 44, 216, 236
748, 25, 144, 150, 210
749, 149, 152, 150, 210
750, 66, 209, 212, 247
751, 180, 170, 228, 235
752, 120, 115, 57, 225
753, 149, 51, 217, 231
754, 143, 149, 210, 231
755, 65, 68, 205, 230
756, 70, 66, 209, 212
757, 71, 66, 70, 212
758, 69, 70, 209, 212
759, 71, 67, 66, 212
760, 154, 142, 210, 231
761, 175, 188, 211, 216
762, 170, 176, 235, 264
763, 280, 285, 286, 288
764, 161, 10, 164, 218
765, 177, 59, 188, 216
766, 213, 175, 236, 237
767, 129, 83, 181, 218
768, 39, 59, 177, 216
769, 178, 64, 211, 216
770, 187, 158, 206, 276
771, 146, 147, 141, 215
772, 35, 34, 283, 288
773, 49, 73, 50, 215
774, 44, 45, 38, 216
775, 174, 181, 195, 256
776, 202, 175, 216, 236
777, 213, 175, 237, 252
778, 51, 151, 47, 217
779, 152, 51, 47, 217
780, 47, 42, 46, 217
781, 47, 151, 48, 217
782, 152, 47, 46, 217
783, 236, 222, 287, 290
784, 51, 152, 149, 217
785, 229, 212, 230, 247
786, 204, 120, 225, 227
787, 161, 174, 181, 220
788, 174, 192, 195, 220
789, 181, 174, 195, 220
790, 163, 162, 201, 221
791, 11, 161, 167, 221
792, 167, 163, 201, 221
793, 16, 167, 201, 221
794, 12, 16, 201, 221
795, 7, 13, 207, 221
796, 12, 7, 207, 221
797, 167, 161, 189, 221
798, 163, 167, 189, 221
799, 153, 163, 189, 221
800, 153, 162, 163, 221
801, 161, 153, 189, 221
802, 153, 161, 162, 221
803, 15, 11, 167, 221
804, 16, 15, 167, 221
805, 7, 12, 13, 221
806, 12, 11, 16, 221
807, 11, 15, 16, 221
808, 169, 197, 269, 286
809, 280, 222, 284, 286
810, 67, 71, 279, 289
811, 222, 196, 237, 285
812, 158, 67, 279, 289
813, 283, 40, 285, 288
814, 169, 31, 268, 286
815, 40, 34, 201, 288
816, 190, 69, 205, 230
817, 53, 56, 219, 225
818, 201, 197, 285, 288
819, 199, 247, 214, 230
820, 186, 157, 204, 229
821, 225, 182, 227, 228
822, 154, 213, 215, 231
823, 154, 196, 213, 231
824, 198, 120, 204, 227
825, 176, 121, 198, 227
826, 176, 198, 204, 227
827, 115, 116, 226, 227
828, 115, 120, 116, 227
829, 120, 121, 116, 227
830, 128, 127, 203, 242
831, 105, 106, 180, 228
832, 111, 53, 226, 228
833, 44, 49, 202, 236
834, 53, 115, 226, 228
835, 105, 53, 111, 228
836, 105, 111, 106, 228
837, 158, 157, 186, 229
838, 58, 186, 204, 229
839, 58, 62, 186, 229
840, 117, 116, 176, 254
841, 56, 182, 188, 229
842, 60, 56, 188, 229
843, 182, 56, 219, 229
844, 165, 162, 269, 272
845, 61, 57, 214, 229
846, 214, 57, 219, 229
847, 57, 61, 58, 229
848, 85, 206, 251, 262
849, 196, 154, 210, 231
850, 58, 61, 62, 229
851, 56, 60, 214, 229
852, 56, 214, 219, 229
853, 126, 127, 203, 262
854, 198, 126, 203, 262
855, 155, 156, 187, 245
856, 202, 175, 213, 252
857, 252, 153, 257, 278
858, 157, 182, 194, 278
859, 194, 252, 257, 278
860, 157, 170, 182, 278
861, 243, 245, 255, 259
862, 156, 155, 172, 245
863, 234, 86, 249, 250
864, 170, 176, 264, 267
865, 154, 190, 205, 252
866, 224, 243, 245, 255
867, 96, 193, 243, 255
868, 203, 128, 246, 271
869, 106, 107, 173, 235
870, 112, 111, 232, 235
871, 111, 226, 232, 235
872, 112, 232, 233, 235
873, 128, 77, 195, 271
874, 111, 112, 106, 235
875, 100, 96, 224, 255
876, 153, 237, 272, 278
877, 106, 112, 107, 235
878, 175, 177, 236, 237
879, 169, 162, 197, 237
880, 30, 36, 197, 288
881, 188, 175, 211, 239
882, 188, 211, 230, 239
883, 179, 233, 241, 270
884, 62, 186, 229, 253
885, 158, 212, 247, 253
886, 186, 158, 229, 253
887, 224, 96, 243, 255
888, 245, 172, 255, 259
889, 127, 122, 203, 242
890, 203, 128, 242, 246
891, 166, 155, 257, 265
892, 67, 66, 212, 247
893, 100, 172, 193, 255
894, 118, 238, 240, 241
895, 213, 196, 222, 290
896, 238, 232, 240, 241
897, 153, 161, 189, 265
898, 233, 232, 238, 241
899, 2, 181, 200, 256
900, 155, 166, 172, 259
901, 97, 96, 193, 243
902, 91, 92, 234, 243
903, 92, 97, 193, 243
904, 124, 123, 195, 246
905, 154, 160, 252, 257
906, 193, 159, 243, 255
907, 92, 159, 164, 243
908, 164, 159, 234, 243
909, 92, 164, 234, 243
910, 96, 223, 224, 243
911, 223, 95, 224, 243
912, 96, 91, 223, 243
913, 262, 260, 271, 277
914, 97, 91, 96, 243
915, 91, 97, 92, 243
916, 174, 162, 200, 256
917, 162, 168, 200, 256
918, 162, 174, 179, 256
919, 95, 99, 224, 245
920, 130, 99, 95, 245
921, 99, 100, 224, 245
922, 181, 174, 200, 256
923, 240, 122, 242, 246
924, 123, 240, 242, 246
925, 128, 123, 242, 246
926, 117, 122, 240, 246
927, 123, 118, 240, 246
928, 123, 124, 118, 246
929, 98, 76, 156, 279
930, 243, 187, 245, 259
931, 190, 194, 239, 252
932, 194, 175, 239, 252
933, 234, 187, 251, 258
934, 187, 192, 234, 251
935, 182, 175, 194, 278
936, 220, 164, 234, 277
937, 63, 84, 266, 274
938, 180, 170, 272, 278
939, 85, 244, 250, 251
940, 85, 276, 84, 244
941, 174, 176, 203, 267
942, 266, 158, 275, 276
943, 84, 206, 266, 276
944, 107, 173, 248, 261
945, 159, 187, 234, 258
946, 249, 234, 250, 258
947, 196, 213, 237, 252
948, 196, 154, 213, 252
949, 213, 154, 215, 252
950, 154, 205, 215, 252
951, 202, 205, 239, 252
952, 187, 159, 243, 258
953, 153, 196, 237, 252
954, 202, 213, 215, 252
955, 205, 202, 215, 252
956, 240, 117, 246, 254
957, 241, 240, 246, 254
958, 189, 166, 257, 265
959, 161, 153, 220, 265
960, 117, 122, 246, 254
961, 122, 117, 176, 254
962, 176, 116, 227, 254
963, 176, 227, 235, 254
964, 226, 232, 235, 254
965, 122, 176, 203, 254
966, 203, 176, 246, 254
967, 122, 203, 246, 254
968, 116, 226, 227, 254
969, 227, 226, 235, 254
970, 232, 117, 240, 254
971, 116, 117, 232, 254
972, 226, 116, 232, 254
973, 2, 1, 181, 256
974, 118, 238, 241, 256
975, 241, 174, 246, 256
976, 174, 195, 246, 256
977, 3, 2, 200, 256
978, 1, 124, 195, 256
979, 118, 241, 246, 256
980, 195, 124, 246, 256
981, 124, 118, 246, 256
982, 119, 2, 114, 256
983, 119, 114, 238, 256
984, 1, 2, 119, 256
985, 118, 119, 238, 256
986, 2, 3, 114, 256
987, 124, 1, 119, 256
988, 118, 124, 119, 256
989, 250, 223, 249, 258
990, 90, 95, 223, 258
991, 63, 263, 266, 275
992, 79, 84, 206, 266
993, 172, 166, 185, 259
994, 172, 185, 193, 259
995, 70, 71, 212, 289
996, 185, 159, 193, 259
997, 192, 174, 203, 267
998, 179, 241, 254, 270
999, 241, 233, 254, 270
1000, 177, 175, 180, 278
1001, 31, 169, 268, 269
1002, 165, 103, 261, 269
1003, 173, 165, 261, 269
1004, 103, 27, 261, 269
1005, 27, 102, 248, 261
1006, 108, 27, 248, 261
1007, 102, 107, 248, 261
1008, 162, 169, 197, 269
1009, 103, 27, 108, 261
1010, 128, 195, 246, 271
1011, 85, 79, 206, 262
1012, 79, 126, 198, 262
1013, 80, 250, 260, 262
1014, 153, 162, 267, 272
1015, 194, 175, 252, 278
1016, 80, 85, 250, 262
1017, 127, 80, 260, 262
1018, 180, 175, 182, 278
1019, 85, 80, 79, 262
1020, 127, 126, 80, 262
1021, 162, 169, 269, 272
1022, 80, 126, 79, 262
1023, 195, 192, 203, 271
1024, 166, 185, 259, 265
1025, 192, 159, 220, 265
1026, 32, 169, 184, 268
1027, 187, 155, 259, 265
1028, 159, 187, 259, 265
1029, 192, 157, 206, 265
1030, 157, 155, 206, 265
1031, 187, 159, 192, 265
1032, 187, 192, 206, 265
1033, 155, 187, 206, 265
1034, 157, 170, 176, 182
1035, 220, 192, 265, 267
1036, 153, 220, 265, 267
1037, 157, 192, 198, 267
1038, 198, 192, 203, 267
1039, 176, 157, 198, 267
1040, 176, 198, 203, 267
1041, 173, 165, 179, 270
1042, 102, 261, 268, 269
1043, 102, 173, 261, 269
1044, 44, 236, 282, 287
1045, 169, 184, 268, 269
1046, 30, 103, 165, 269
1047, 173, 102, 184, 269
1048, 184, 102, 268, 269
1049, 27, 31, 268, 269
1050, 27, 103, 31, 269
1051, 103, 30, 31, 269
1052, 173, 170, 235, 270
1053, 235, 170, 264, 270
1054, 170, 179, 264, 270
1055, 236, 222, 237, 282
1056, 113, 108, 233, 270
1057, 233, 108, 248, 270
1058, 107, 233, 248, 270
1059, 107, 112, 233, 270
1060, 195, 82, 218, 271
1061, 81, 128, 260, 271
1062, 128, 81, 77, 271
1063, 128, 127, 260, 271
1064, 77, 81, 82, 271
1065, 264, 170, 267, 272
1066, 162, 264, 267, 272
1067, 162, 165, 179, 272
1068, 173, 165, 269, 272
1069, 184, 173, 269, 272
1070, 169, 184, 269, 272
1071, 170, 173, 180, 272
1072, 180, 173, 184, 272
1073, 179, 170, 264, 272
1074, 162, 179, 264, 272
1075, 165, 173, 179, 272
1076, 173, 179, 170, 270
1077, 179, 173, 170, 272
1078, 164, 87, 234, 277
1079, 87, 86, 234, 277
1080, 177, 38, 236, 282
1081, 192, 251, 262, 277
1082, 260, 81, 271, 277
1083, 263, 88, 274, 275
1084, 253, 88, 263, 275
1085, 218, 164, 220, 277
1086, 67, 88, 253, 275
1087, 63, 253, 263, 275
1088, 36, 35, 280, 288
1089, 89, 94, 187, 276
1090, 85, 206, 276, 251
1091, 251, 244, 258, 276
1092, 187, 251, 258, 276
1093, 47, 42, 222, 284
1094, 89, 244, 274, 276
1095, 89, 275, 274, 88
1096, 89, 90, 244, 276
1097, 244, 84, 274, 276
1098, 86, 81, 250, 277
1099, 86, 87, 82, 277
1100, 250, 81, 260, 277
1101, 177, 180, 272, 278
1102, 175, 177, 237, 278
1103, 237, 177, 272, 278
1104, 94, 72, 156, 279
1105, 88, 89, 275, 279
1106, 94, 187, 276, 279
1107, 94, 156, 187, 279
1108, 89, 94, 276, 279
1109, 72, 67, 71, 279
1110, 72, 71, 98, 279
1111, 71, 76, 98, 279
1112, 72, 88, 67, 279
1113, 72, 89, 88, 279
1114, 89, 72, 94, 279
1115, 169, 177, 237, 282
1116, 38, 177, 184, 282
1117, 32, 169, 268, 282
1118, 268, 169, 273, 282
1119, 169, 32, 184, 282
1120, 32, 37, 184, 282
1121, 37, 33, 184, 282
1122, 33, 38, 184, 282
1123, 38, 37, 281, 282
1124, 37, 273, 281, 282
1125, 44, 38, 281, 282
1126, 37, 32, 273, 282
1127, 38, 33, 37, 282
1128, 32, 268, 273, 282
1129, 162, 197, 237, 285
1130, 163, 162, 237, 285
1131, 162, 163, 197, 285
1132, 286, 284, 273, 287
1133, 42, 222, 280, 285
1134, 163, 191, 201, 285
1135, 158, 194, 212, 289
1136, 191, 163, 196, 285
1137, 41, 40, 191, 285
1138, 191, 40, 201, 285
1139, 191, 196, 217, 285
1140, 217, 196, 222, 285
1141, 42, 217, 222, 285
1142, 46, 41, 191, 285
1143, 46, 191, 217, 285
1144, 42, 46, 217, 285
1145, 282, 222, 286, 287
1146, 41, 280, 283, 285
1147, 222, 284, 286, 287
1148, 41, 42, 280, 285
1149, 40, 41, 283, 285
1150, 42, 41, 46, 285
1151, 268, 31, 273, 286
1152, 43, 281, 284, 287
1153, 273, 284, 281, 287
1154, 284, 286, 273, 280
1155, 34, 40, 283, 288
1156, 71, 67, 212, 289
1157, 160, 190, 257, 289
1158, 160, 70, 190, 289
1159, 190, 70, 212, 289
1160, 76, 156, 279, 289
1161, 156, 76, 160, 289
1162, 76, 70, 160, 289
1163, 190, 194, 252, 289
1164, 252, 194, 257, 289
1165, 190, 252, 257, 289
1166, 71, 70, 76, 289
1167, 151, 217, 231, 290
1168, 151, 48, 217, 290
1169, 215, 151, 231, 290
1170, 52, 151, 215, 290
1171, 47, 48, 284, 290
1172, 48, 43, 284, 290
1173, 49, 43, 48, 290
1174, 43, 49, 44, 290
1175, 49, 48, 52, 290
1176, 48, 151, 52, 290
