**INP GENERATOR - CRYSTALLON 
**FILENAME = C3D6example
*NODE,NSET=NC3D6example
 1, -5.774, -5.774, 5.774
 2, -3.906, -6.509, 6.509
 3, -1.4, -7.001, 7.001
 4, 1.4, -7.001, 7.001
 5, 3.906, -6.509, 6.509
 6, 5.774, -5.774, 5.774
 7, -6.509, -3.906, 6.509
 8, -4.575, -4.575, 7.625
 9, -1.69, -5.071, 8.452
 10, 1.69, -5.071, 8.452
 11, 4.575, -4.575, 7.625
 12, 6.509, -3.906, 6.509
 13, -7.001, -1.4, 7.001
 14, -5.071, -1.69, 8.452
 15, -1.925, -1.925, 9.623
 16, 1.925, -1.925, 9.623
 17, 5.071, -1.69, 8.452
 18, 7.001, -1.4, 7.001
 19, -7.001, 1.4, 7.001
 20, -5.071, 1.69, 8.452
 21, -1.925, 1.925, 9.623
 22, 1.925, 1.925, 9.623
 23, 5.071, 1.69, 8.452
 24, 7.001, 1.4, 7.001
 25, -6.509, 3.906, 6.509
 26, -4.575, 4.575, 7.625
 27, -1.69, 5.071, 8.452
 28, 1.69, 5.071, 8.452
 29, 4.575, 4.575, 7.625
 30, 6.509, 3.906, 6.509
 31, -5.774, 5.774, 5.774
 32, -3.906, 6.509, 6.509
 33, -1.4, 7.001, 7.001
 34, 1.4, 7.001, 7.001
 35, 3.906, 6.509, 6.509
 36, 5.774, 5.774, 5.774
 37, 5.774, -5.774, 5.774
 38, 6.509, -6.509, 3.906
 39, 7.001, -7.001, 1.4
 40, 7.001, -7.001, -1.4
 41, 6.509, -6.509, -3.906
 42, 5.774, -5.774, -5.774
 43, 6.509, -3.906, 6.509
 44, 7.625, -4.575, 4.575
 45, 8.452, -5.071, 1.69
 46, 8.452, -5.071, -1.69
 47, 7.625, -4.575, -4.575
 48, 6.509, -3.906, -6.509
 49, 7.001, -1.4, 7.001
 50, 8.452, -1.69, 5.071
 51, 9.623, -1.925, 1.925
 52, 9.623, -1.925, -1.925
 53, 8.452, -1.69, -5.071
 54, 7.001, -1.4, -7.001
 55, 7.001, 1.4, 7.001
 56, 8.452, 1.69, 5.071
 57, 9.623, 1.925, 1.925
 58, 9.623, 1.925, -1.925
 59, 8.452, 1.69, -5.071
 60, 7.001, 1.4, -7.001
 61, 6.509, 3.906, 6.509
 62, 7.625, 4.575, 4.575
 63, 8.452, 5.071, 1.69
 64, 8.452, 5.071, -1.69
 65, 7.625, 4.575, -4.575
 66, 6.509, 3.906, -6.509
 67, 5.774, 5.774, 5.774
 68, 6.509, 6.509, 3.906
 69, 7.001, 7.001, 1.4
 70, 7.001, 7.001, -1.4
 71, 6.509, 6.509, -3.906
 72, 5.774, 5.774, -5.774
 73, 5.774, -5.774, -5.774
 74, 3.906, -6.509, -6.509
 75, 1.4, -7.001, -7.001
 76, -1.4, -7.001, -7.001
 77, -3.906, -6.509, -6.509
 78, -5.774, -5.774, -5.774
 79, 6.509, -3.906, -6.509
 80, 4.575, -4.575, -7.625
 81, 1.69, -5.071, -8.452
 82, -1.69, -5.071, -8.452
 83, -4.575, -4.575, -7.625
 84, -6.509, -3.906, -6.509
 85, 7.001, -1.4, -7.001
 86, 5.071, -1.69, -8.452
 87, 1.925, -1.925, -9.623
 88, -1.925, -1.925, -9.623
 89, -5.071, -1.69, -8.452
 90, -7.001, -1.4, -7.001
 91, 7.001, 1.4, -7.001
 92, 5.071, 1.69, -8.452
 93, 1.925, 1.925, -9.623
 94, -1.925, 1.925, -9.623
 95, -5.071, 1.69, -8.452
 96, -7.001, 1.4, -7.001
 97, 6.509, 3.906, -6.509
 98, 4.575, 4.575, -7.625
 99, 1.69, 5.071, -8.452
 100, -1.69, 5.071, -8.452
 101, -4.575, 4.575, -7.625
 102, -6.509, 3.906, -6.509
 103, 5.774, 5.774, -5.774
 104, 3.906, 6.509, -6.509
 105, 1.4, 7.001, -7.001
 106, -1.4, 7.001, -7.001
 107, -3.906, 6.509, -6.509
 108, -5.774, 5.774, -5.774
 109, -5.774, -5.774, -5.774
 110, -6.509, -6.509, -3.906
 111, -7.001, -7.001, -1.4
 112, -7.001, -7.001, 1.4
 113, -6.509, -6.509, 3.906
 114, -5.774, -5.774, 5.774
 115, -6.509, -3.906, -6.509
 116, -7.625, -4.575, -4.575
 117, -8.452, -5.071, -1.69
 118, -8.452, -5.071, 1.69
 119, -7.625, -4.575, 4.575
 120, -6.509, -3.906, 6.509
 121, -7.001, -1.4, -7.001
 122, -8.452, -1.69, -5.071
 123, -9.623, -1.925, -1.925
 124, -9.623, -1.925, 1.925
 125, -8.452, -1.69, 5.071
 126, -7.001, -1.4, 7.001
 127, -7.001, 1.4, -7.001
 128, -8.452, 1.69, -5.071
 129, -9.623, 1.925, -1.925
 130, -9.623, 1.925, 1.925
 131, -8.452, 1.69, 5.071
 132, -7.001, 1.4, 7.001
 133, -6.509, 3.906, -6.509
 134, -7.625, 4.575, -4.575
 135, -8.452, 5.071, -1.69
 136, -8.452, 5.071, 1.69
 137, -7.625, 4.575, 4.575
 138, -6.509, 3.906, 6.509
 139, -5.774, 5.774, -5.774
 140, -6.509, 6.509, -3.906
 141, -7.001, 7.001, -1.4
 142, -7.001, 7.001, 1.4
 143, -6.509, 6.509, 3.906
 144, -5.774, 5.774, 5.774
 145, 5.774, -5.774, -5.774
 146, 6.509, -6.509, -3.906
 147, 7.001, -7.001, -1.4
 148, 7.001, -7.001, 1.4
 149, 6.509, -6.509, 3.906
 150, 5.774, -5.774, 5.774
 151, 3.906, -6.509, -6.509
 152, 4.575, -7.625, -4.575
 153, 5.071, -8.452, -1.69
 154, 5.071, -8.452, 1.69
 155, 4.575, -7.625, 4.575
 156, 3.906, -6.509, 6.509
 157, 1.4, -7.001, -7.001
 158, 1.69, -8.452, -5.071
 159, 1.925, -9.623, -1.925
 160, 1.925, -9.623, 1.925
 161, 1.69, -8.452, 5.071
 162, 1.4, -7.001, 7.001
 163, -1.4, -7.001, -7.001
 164, -1.69, -8.452, -5.071
 165, -1.925, -9.623, -1.925
 166, -1.925, -9.623, 1.925
 167, -1.69, -8.452, 5.071
 168, -1.4, -7.001, 7.001
 169, -3.906, -6.509, -6.509
 170, -4.575, -7.625, -4.575
 171, -5.071, -8.452, -1.69
 172, -5.071, -8.452, 1.69
 173, -4.575, -7.625, 4.575
 174, -3.906, -6.509, 6.509
 175, -5.774, -5.774, -5.774
 176, -6.509, -6.509, -3.906
 177, -7.001, -7.001, -1.4
 178, -7.001, -7.001, 1.4
 179, -6.509, -6.509, 3.906
 180, -5.774, -5.774, 5.774
 181, -5.774, 5.774, -5.774
 182, -6.509, 6.509, -3.906
 183, -7.001, 7.001, -1.4
 184, -7.001, 7.001, 1.4
 185, -6.509, 6.509, 3.906
 186, -5.774, 5.774, 5.774
 187, -3.906, 6.509, -6.509
 188, -4.575, 7.625, -4.575
 189, -5.071, 8.452, -1.69
 190, -5.071, 8.452, 1.69
 191, -4.575, 7.625, 4.575
 192, -3.906, 6.509, 6.509
 193, -1.4, 7.001, -7.001
 194, -1.69, 8.452, -5.071
 195, -1.925, 9.623, -1.925
 196, -1.925, 9.623, 1.925
 197, -1.69, 8.452, 5.071
 198, -1.4, 7.001, 7.001
 199, 1.4, 7.001, -7.001
 200, 1.69, 8.452, -5.071
 201, 1.925, 9.623, -1.925
 202, 1.925, 9.623, 1.925
 203, 1.69, 8.452, 5.071
 204, 1.4, 7.001, 7.001
 205, 3.906, 6.509, -6.509
 206, 4.575, 7.625, -4.575
 207, 5.071, 8.452, -1.69
 208, 5.071, 8.452, 1.69
 209, 4.575, 7.625, 4.575
 210, 3.906, 6.509, 6.509
 211, 5.774, 5.774, -5.774
 212, 6.509, 6.509, -3.906
 213, 7.001, 7.001, -1.4
 214, 7.001, 7.001, 1.4
 215, 6.509, 6.509, 3.906
 216, 5.774, 5.774, 5.774
 217, -6.351, -6.351, 6.351
 218, -4.296, -7.16, 7.16
 219, -1.54, -7.702, 7.702
 220, 1.54, -7.702, 7.702
 221, 4.296, -7.16, 7.16
 222, 6.351, -6.351, 6.351
 223, -7.16, -4.296, 7.16
 224, -5.032, -5.032, 8.387
 225, -1.859, -5.578, 9.297
 226, 1.859, -5.578, 9.297
 227, 5.032, -5.032, 8.387
 228, 7.16, -4.296, 7.16
 229, -7.702, -1.54, 7.702
 230, -5.578, -1.859, 9.297
 231, -2.117, -2.117, 10.585
 232, 2.117, -2.117, 10.585
 233, 5.578, -1.859, 9.297
 234, 7.702, -1.54, 7.702
 235, -7.702, 1.54, 7.702
 236, -5.578, 1.859, 9.297
 237, -2.117, 2.117, 10.585
 238, 2.117, 2.117, 10.585
 239, 5.578, 1.859, 9.297
 240, 7.702, 1.54, 7.702
 241, -7.16, 4.296, 7.16
 242, -5.032, 5.032, 8.387
 243, -1.859, 5.578, 9.297
 244, 1.859, 5.578, 9.297
 245, 5.032, 5.032, 8.387
 246, 7.16, 4.296, 7.16
 247, -6.351, 6.351, 6.351
 248, -4.296, 7.16, 7.16
 249, -1.54, 7.702, 7.702
 250, 1.54, 7.702, 7.702
 251, 4.296, 7.16, 7.16
 252, 6.351, 6.351, 6.351
 253, 6.351, -6.351, 6.351
 254, 7.16, -7.16, 4.296
 255, 7.702, -7.702, 1.54
 256, 7.702, -7.702, -1.54
 257, 7.16, -7.16, -4.296
 258, 6.351, -6.351, -6.351
 259, 7.16, -4.296, 7.16
 260, 8.387, -5.032, 5.032
 261, 9.297, -5.578, 1.859
 262, 9.297, -5.578, -1.859
 263, 8.387, -5.032, -5.032
 264, 7.16, -4.296, -7.16
 265, 7.702, -1.54, 7.702
 266, 9.297, -1.859, 5.578
 267, 10.585, -2.117, 2.117
 268, 10.585, -2.117, -2.117
 269, 9.297, -1.859, -5.578
 270, 7.702, -1.54, -7.702
 271, 7.702, 1.54, 7.702
 272, 9.297, 1.859, 5.578
 273, 10.585, 2.117, 2.117
 274, 10.585, 2.117, -2.117
 275, 9.297, 1.859, -5.578
 276, 7.702, 1.54, -7.702
 277, 7.16, 4.296, 7.16
 278, 8.387, 5.032, 5.032
 279, 9.297, 5.578, 1.859
 280, 9.297, 5.578, -1.859
 281, 8.387, 5.032, -5.032
 282, 7.16, 4.296, -7.16
 283, 6.351, 6.351, 6.351
 284, 7.16, 7.16, 4.296
 285, 7.702, 7.702, 1.54
 286, 7.702, 7.702, -1.54
 287, 7.16, 7.16, -4.296
 288, 6.351, 6.351, -6.351
 289, 6.351, -6.351, -6.351
 290, 4.296, -7.16, -7.16
 291, 1.54, -7.702, -7.702
 292, -1.54, -7.702, -7.702
 293, -4.296, -7.16, -7.16
 294, -6.351, -6.351, -6.351
 295, 7.16, -4.296, -7.16
 296, 5.032, -5.032, -8.387
 297, 1.859, -5.578, -9.297
 298, -1.859, -5.578, -9.297
 299, -5.032, -5.032, -8.387
 300, -7.16, -4.296, -7.16
 301, 7.702, -1.54, -7.702
 302, 5.578, -1.859, -9.297
 303, 2.117, -2.117, -10.585
 304, -2.117, -2.117, -10.585
 305, -5.578, -1.859, -9.297
 306, -7.702, -1.54, -7.702
 307, 7.702, 1.54, -7.702
 308, 5.578, 1.859, -9.297
 309, 2.117, 2.117, -10.585
 310, -2.117, 2.117, -10.585
 311, -5.578, 1.859, -9.297
 312, -7.702, 1.54, -7.702
 313, 7.16, 4.296, -7.16
 314, 5.032, 5.032, -8.387
 315, 1.859, 5.578, -9.297
 316, -1.859, 5.578, -9.297
 317, -5.032, 5.032, -8.387
 318, -7.16, 4.296, -7.16
 319, 6.351, 6.351, -6.351
 320, 4.296, 7.16, -7.16
 321, 1.54, 7.702, -7.702
 322, -1.54, 7.702, -7.702
 323, -4.296, 7.16, -7.16
 324, -6.351, 6.351, -6.351
 325, -6.351, -6.351, -6.351
 326, -7.16, -7.16, -4.296
 327, -7.702, -7.702, -1.54
 328, -7.702, -7.702, 1.54
 329, -7.16, -7.16, 4.296
 330, -6.351, -6.351, 6.351
 331, -7.16, -4.296, -7.16
 332, -8.387, -5.032, -5.032
 333, -9.297, -5.578, -1.859
 334, -9.297, -5.578, 1.859
 335, -8.387, -5.032, 5.032
 336, -7.16, -4.296, 7.16
 337, -7.702, -1.54, -7.702
 338, -9.297, -1.859, -5.578
 339, -10.585, -2.117, -2.117
 340, -10.585, -2.117, 2.117
 341, -9.297, -1.859, 5.578
 342, -7.702, -1.54, 7.702
 343, -7.702, 1.54, -7.702
 344, -9.297, 1.859, -5.578
 345, -10.585, 2.117, -2.117
 346, -10.585, 2.117, 2.117
 347, -9.297, 1.859, 5.578
 348, -7.702, 1.54, 7.702
 349, -7.16, 4.296, -7.16
 350, -8.387, 5.032, -5.032
 351, -9.297, 5.578, -1.859
 352, -9.297, 5.578, 1.859
 353, -8.387, 5.032, 5.032
 354, -7.16, 4.296, 7.16
 355, -6.351, 6.351, -6.351
 356, -7.16, 7.16, -4.296
 357, -7.702, 7.702, -1.54
 358, -7.702, 7.702, 1.54
 359, -7.16, 7.16, 4.296
 360, -6.351, 6.351, 6.351
 361, 6.351, -6.351, -6.351
 362, 7.16, -7.16, -4.296
 363, 7.702, -7.702, -1.54
 364, 7.702, -7.702, 1.54
 365, 7.16, -7.16, 4.296
 366, 6.351, -6.351, 6.351
 367, 4.296, -7.16, -7.16
 368, 5.032, -8.387, -5.032
 369, 5.578, -9.297, -1.859
 370, 5.578, -9.297, 1.859
 371, 5.032, -8.387, 5.032
 372, 4.296, -7.16, 7.16
 373, 1.54, -7.702, -7.702
 374, 1.859, -9.297, -5.578
 375, 2.117, -10.585, -2.117
 376, 2.117, -10.585, 2.117
 377, 1.859, -9.297, 5.578
 378, 1.54, -7.702, 7.702
 379, -1.54, -7.702, -7.702
 380, -1.859, -9.297, -5.578
 381, -2.117, -10.585, -2.117
 382, -2.117, -10.585, 2.117
 383, -1.859, -9.297, 5.578
 384, -1.54, -7.702, 7.702
 385, -4.296, -7.16, -7.16
 386, -5.032, -8.387, -5.032
 387, -5.578, -9.297, -1.859
 388, -5.578, -9.297, 1.859
 389, -5.032, -8.387, 5.032
 390, -4.296, -7.16, 7.16
 391, -6.351, -6.351, -6.351
 392, -7.16, -7.16, -4.296
 393, -7.702, -7.702, -1.54
 394, -7.702, -7.702, 1.54
 395, -7.16, -7.16, 4.296
 396, -6.351, -6.351, 6.351
 397, -6.351, 6.351, -6.351
 398, -7.16, 7.16, -4.296
 399, -7.702, 7.702, -1.54
 400, -7.702, 7.702, 1.54
 401, -7.16, 7.16, 4.296
 402, -6.351, 6.351, 6.351
 403, -4.296, 7.16, -7.16
 404, -5.032, 8.387, -5.032
 405, -5.578, 9.297, -1.859
 406, -5.578, 9.297, 1.859
 407, -5.032, 8.387, 5.032
 408, -4.296, 7.16, 7.16
 409, -1.54, 7.702, -7.702
 410, -1.859, 9.297, -5.578
 411, -2.117, 10.585, -2.117
 412, -2.117, 10.585, 2.117
 413, -1.859, 9.297, 5.578
 414, -1.54, 7.702, 7.702
 415, 1.54, 7.702, -7.702
 416, 1.859, 9.297, -5.578
 417, 2.117, 10.585, -2.117
 418, 2.117, 10.585, 2.117
 419, 1.859, 9.297, 5.578
 420, 1.54, 7.702, 7.702
 421, 4.296, 7.16, -7.16
 422, 5.032, 8.387, -5.032
 423, 5.578, 9.297, -1.859
 424, 5.578, 9.297, 1.859
 425, 5.032, 8.387, 5.032
 426, 4.296, 7.16, 7.16
 427, 6.351, 6.351, -6.351
 428, 7.16, 7.16, -4.296
 429, 7.702, 7.702, -1.54
 430, 7.702, 7.702, 1.54
 431, 7.16, 7.16, 4.296
 432, 6.351, 6.351, 6.351
*ELEMENT,TYPE=C3D6,ELSET=EC3D6example
1, 1, 2, 8, 217, 218, 224
2, 2, 3, 9, 218, 219, 225
3, 3, 4, 10, 219, 220, 226
4, 4, 5, 10, 220, 221, 226
5, 5, 6, 11, 221, 222, 227
6, 7, 8, 14, 223, 224, 230
7, 8, 9, 15, 224, 225, 231
8, 9, 10, 16, 225, 226, 232
9, 10, 11, 16, 226, 227, 232
10, 11, 12, 17, 227, 228, 233
11, 13, 14, 20, 229, 230, 236
12, 14, 15, 21, 230, 231, 237
13, 15, 16, 22, 231, 232, 238
14, 16, 17, 23, 232, 233, 239
15, 17, 18, 24, 233, 234, 240
16, 19, 20, 25, 235, 236, 241
17, 20, 21, 26, 236, 237, 242
18, 21, 22, 28, 237, 238, 244
19, 22, 23, 29, 238, 239, 245
20, 23, 24, 30, 239, 240, 246
21, 25, 26, 31, 241, 242, 247
22, 26, 27, 32, 242, 243, 248
23, 27, 28, 34, 243, 244, 250
24, 28, 29, 35, 244, 245, 251
25, 29, 30, 36, 245, 246, 252
26, 37, 38, 44, 253, 254, 260
27, 38, 39, 45, 254, 255, 261
28, 39, 40, 46, 255, 256, 262
29, 40, 41, 46, 256, 257, 262
30, 41, 42, 47, 257, 258, 263
31, 43, 44, 50, 259, 260, 266
32, 44, 45, 51, 260, 261, 267
33, 45, 46, 52, 261, 262, 268
34, 46, 47, 52, 262, 263, 268
35, 47, 48, 53, 263, 264, 269
36, 49, 50, 56, 265, 266, 272
37, 50, 51, 57, 266, 267, 273
38, 51, 52, 58, 267, 268, 274
39, 52, 53, 59, 268, 269, 275
40, 53, 54, 60, 269, 270, 276
41, 55, 56, 61, 271, 272, 277
42, 56, 57, 62, 272, 273, 278
43, 57, 58, 64, 273, 274, 280
44, 58, 59, 65, 274, 275, 281
45, 59, 60, 66, 275, 276, 282
46, 61, 62, 67, 277, 278, 283
47, 62, 63, 68, 278, 279, 284
48, 63, 64, 70, 279, 280, 286
49, 64, 65, 71, 280, 281, 287
50, 65, 66, 72, 281, 282, 288
51, 73, 74, 80, 289, 290, 296
52, 74, 75, 81, 290, 291, 297
53, 75, 76, 82, 291, 292, 298
54, 76, 77, 82, 292, 293, 298
55, 77, 78, 83, 293, 294, 299
56, 79, 80, 86, 295, 296, 302
57, 80, 81, 87, 296, 297, 303
58, 81, 82, 88, 297, 298, 304
59, 82, 83, 88, 298, 299, 304
60, 83, 84, 89, 299, 300, 305
61, 85, 86, 92, 301, 302, 308
62, 86, 87, 93, 302, 303, 309
63, 87, 88, 94, 303, 304, 310
64, 88, 89, 95, 304, 305, 311
65, 89, 90, 96, 305, 306, 312
66, 91, 92, 97, 307, 308, 313
67, 92, 93, 98, 308, 309, 314
68, 93, 94, 100, 309, 310, 316
69, 94, 95, 101, 310, 311, 317
70, 95, 96, 102, 311, 312, 318
71, 97, 98, 103, 313, 314, 319
72, 98, 99, 104, 314, 315, 320
73, 99, 100, 106, 315, 316, 322
74, 100, 101, 107, 316, 317, 323
75, 101, 102, 108, 317, 318, 324
76, 109, 110, 116, 325, 326, 332
77, 110, 111, 117, 326, 327, 333
78, 111, 112, 118, 327, 328, 334
79, 112, 113, 118, 328, 329, 334
80, 113, 114, 119, 329, 330, 335
81, 115, 116, 122, 331, 332, 338
82, 116, 117, 123, 332, 333, 339
83, 117, 118, 124, 333, 334, 340
84, 118, 119, 124, 334, 335, 340
85, 119, 120, 125, 335, 336, 341
86, 121, 122, 128, 337, 338, 344
87, 122, 123, 129, 338, 339, 345
88, 123, 124, 130, 339, 340, 346
89, 124, 125, 131, 340, 341, 347
90, 125, 126, 132, 341, 342, 348
91, 127, 128, 133, 343, 344, 349
92, 128, 129, 134, 344, 345, 350
93, 129, 130, 136, 345, 346, 352
94, 130, 131, 137, 346, 347, 353
95, 131, 132, 138, 347, 348, 354
96, 133, 134, 139, 349, 350, 355
97, 134, 135, 140, 350, 351, 356
98, 135, 136, 142, 351, 352, 358
99, 136, 137, 143, 352, 353, 359
100, 137, 138, 144, 353, 354, 360
101, 145, 146, 152, 361, 362, 368
102, 146, 147, 153, 362, 363, 369
103, 147, 148, 154, 363, 364, 370
104, 148, 149, 154, 364, 365, 370
105, 149, 150, 155, 365, 366, 371
106, 151, 152, 158, 367, 368, 374
107, 152, 153, 159, 368, 369, 375
108, 153, 154, 160, 369, 370, 376
109, 154, 155, 160, 370, 371, 376
110, 155, 156, 161, 371, 372, 377
111, 157, 158, 164, 373, 374, 380
112, 158, 159, 165, 374, 375, 381
113, 159, 160, 166, 375, 376, 382
114, 160, 161, 167, 376, 377, 383
115, 161, 162, 168, 377, 378, 384
116, 163, 164, 169, 379, 380, 385
117, 164, 165, 170, 380, 381, 386
118, 165, 166, 172, 381, 382, 388
119, 166, 167, 173, 382, 383, 389
120, 167, 168, 174, 383, 384, 390
121, 169, 170, 175, 385, 386, 391
122, 170, 171, 176, 386, 387, 392
123, 171, 172, 178, 387, 388, 394
124, 172, 173, 179, 388, 389, 395
125, 173, 174, 180, 389, 390, 396
126, 181, 182, 188, 397, 398, 404
127, 182, 183, 189, 398, 399, 405
128, 183, 184, 190, 399, 400, 406
129, 184, 185, 190, 400, 401, 406
130, 185, 186, 191, 401, 402, 407
131, 187, 188, 194, 403, 404, 410
132, 188, 189, 195, 404, 405, 411
133, 189, 190, 196, 405, 406, 412
134, 190, 191, 196, 406, 407, 412
135, 191, 192, 197, 407, 408, 413
136, 193, 194, 200, 409, 410, 416
137, 194, 195, 201, 410, 411, 417
138, 195, 196, 202, 411, 412, 418
139, 196, 197, 203, 412, 413, 419
140, 197, 198, 204, 413, 414, 420
141, 199, 200, 205, 415, 416, 421
142, 200, 201, 206, 416, 417, 422
143, 201, 202, 208, 417, 418, 424
144, 202, 203, 209, 418, 419, 425
145, 203, 204, 210, 419, 420, 426
146, 205, 206, 211, 421, 422, 427
147, 206, 207, 212, 422, 423, 428
148, 207, 208, 214, 423, 424, 430
149, 208, 209, 215, 424, 425, 431
150, 209, 210, 216, 425, 426, 432
151, 1, 8, 7, 217, 224, 223
152, 2, 9, 8, 218, 225, 224
153, 3, 10, 9, 219, 226, 225
154, 5, 11, 10, 221, 227, 226
155, 6, 12, 11, 222, 228, 227
156, 7, 14, 13, 223, 230, 229
157, 8, 15, 14, 224, 231, 230
158, 9, 16, 15, 225, 232, 231
159, 11, 17, 16, 227, 233, 232
160, 12, 18, 17, 228, 234, 233
161, 13, 20, 19, 229, 236, 235
162, 14, 21, 20, 230, 237, 236
163, 15, 22, 21, 231, 238, 237
164, 16, 23, 22, 232, 239, 238
165, 17, 24, 23, 233, 240, 239
166, 20, 26, 25, 236, 242, 241
167, 21, 27, 26, 237, 243, 242
168, 21, 28, 27, 237, 244, 243
169, 22, 29, 28, 238, 245, 244
170, 23, 30, 29, 239, 246, 245
171, 26, 32, 31, 242, 248, 247
172, 27, 33, 32, 243, 249, 248
173, 27, 34, 33, 243, 250, 249
174, 28, 35, 34, 244, 251, 250
175, 29, 36, 35, 245, 252, 251
176, 37, 44, 43, 253, 260, 259
177, 38, 45, 44, 254, 261, 260
178, 39, 46, 45, 255, 262, 261
179, 41, 47, 46, 257, 263, 262
180, 42, 48, 47, 258, 264, 263
181, 43, 50, 49, 259, 266, 265
182, 44, 51, 50, 260, 267, 266
183, 45, 52, 51, 261, 268, 267
184, 47, 53, 52, 263, 269, 268
185, 48, 54, 53, 264, 270, 269
186, 49, 56, 55, 265, 272, 271
187, 50, 57, 56, 266, 273, 272
188, 51, 58, 57, 267, 274, 273
189, 52, 59, 58, 268, 275, 274
190, 53, 60, 59, 269, 276, 275
191, 56, 62, 61, 272, 278, 277
192, 57, 63, 62, 273, 279, 278
193, 57, 64, 63, 273, 280, 279
194, 58, 65, 64, 274, 281, 280
195, 59, 66, 65, 275, 282, 281
196, 62, 68, 67, 278, 284, 283
197, 63, 69, 68, 279, 285, 284
198, 63, 70, 69, 279, 286, 285
199, 64, 71, 70, 280, 287, 286
200, 65, 72, 71, 281, 288, 287
201, 73, 80, 79, 289, 296, 295
202, 74, 81, 80, 290, 297, 296
203, 75, 82, 81, 291, 298, 297
204, 77, 83, 82, 293, 299, 298
205, 78, 84, 83, 294, 300, 299
206, 79, 86, 85, 295, 302, 301
207, 80, 87, 86, 296, 303, 302
208, 81, 88, 87, 297, 304, 303
209, 83, 89, 88, 299, 305, 304
210, 84, 90, 89, 300, 306, 305
211, 85, 92, 91, 301, 308, 307
212, 86, 93, 92, 302, 309, 308
213, 87, 94, 93, 303, 310, 309
214, 88, 95, 94, 304, 311, 310
215, 89, 96, 95, 305, 312, 311
216, 92, 98, 97, 308, 314, 313
217, 93, 99, 98, 309, 315, 314
218, 93, 100, 99, 309, 316, 315
219, 94, 101, 100, 310, 317, 316
220, 95, 102, 101, 311, 318, 317
221, 98, 104, 103, 314, 320, 319
222, 99, 105, 104, 315, 321, 320
223, 99, 106, 105, 315, 322, 321
224, 100, 107, 106, 316, 323, 322
225, 101, 108, 107, 317, 324, 323
226, 109, 116, 115, 325, 332, 331
227, 110, 117, 116, 326, 333, 332
228, 111, 118, 117, 327, 334, 333
229, 113, 119, 118, 329, 335, 334
230, 114, 120, 119, 330, 336, 335
231, 115, 122, 121, 331, 338, 337
232, 116, 123, 122, 332, 339, 338
233, 117, 124, 123, 333, 340, 339
234, 119, 125, 124, 335, 341, 340
235, 120, 126, 125, 336, 342, 341
236, 121, 128, 127, 337, 344, 343
237, 122, 129, 128, 338, 345, 344
238, 123, 130, 129, 339, 346, 345
239, 124, 131, 130, 340, 347, 346
240, 125, 132, 131, 341, 348, 347
241, 128, 134, 133, 344, 350, 349
242, 129, 135, 134, 345, 351, 350
243, 129, 136, 135, 345, 352, 351
244, 130, 137, 136, 346, 353, 352
245, 131, 138, 137, 347, 354, 353
246, 134, 140, 139, 350, 356, 355
247, 135, 141, 140, 351, 357, 356
248, 135, 142, 141, 351, 358, 357
249, 136, 143, 142, 352, 359, 358
250, 137, 144, 143, 353, 360, 359
251, 145, 152, 151, 361, 368, 367
252, 146, 153, 152, 362, 369, 368
253, 147, 154, 153, 363, 370, 369
254, 149, 155, 154, 365, 371, 370
255, 150, 156, 155, 366, 372, 371
256, 151, 158, 157, 367, 374, 373
257, 152, 159, 158, 368, 375, 374
258, 153, 160, 159, 369, 376, 375
259, 155, 161, 160, 371, 377, 376
260, 156, 162, 161, 372, 378, 377
261, 157, 164, 163, 373, 380, 379
262, 158, 165, 164, 374, 381, 380
263, 159, 166, 165, 375, 382, 381
264, 160, 167, 166, 376, 383, 382
265, 161, 168, 167, 377, 384, 383
266, 164, 170, 169, 380, 386, 385
267, 165, 171, 170, 381, 387, 386
268, 165, 172, 171, 381, 388, 387
269, 166, 173, 172, 382, 389, 388
270, 167, 174, 173, 383, 390, 389
271, 170, 176, 175, 386, 392, 391
272, 171, 177, 176, 387, 393, 392
273, 171, 178, 177, 387, 394, 393
274, 172, 179, 178, 388, 395, 394
275, 173, 180, 179, 389, 396, 395
276, 181, 188, 187, 397, 404, 403
277, 182, 189, 188, 398, 405, 404
278, 183, 190, 189, 399, 406, 405
279, 185, 191, 190, 401, 407, 406
280, 186, 192, 191, 402, 408, 407
281, 187, 194, 193, 403, 410, 409
282, 188, 195, 194, 404, 411, 410
283, 189, 196, 195, 405, 412, 411
284, 191, 197, 196, 407, 413, 412
285, 192, 198, 197, 408, 414, 413
286, 193, 200, 199, 409, 416, 415
287, 194, 201, 200, 410, 417, 416
288, 195, 202, 201, 411, 418, 417
289, 196, 203, 202, 412, 419, 418
290, 197, 204, 203, 413, 420, 419
291, 200, 206, 205, 416, 422, 421
292, 201, 207, 206, 417, 423, 422
293, 201, 208, 207, 417, 424, 423
294, 202, 209, 208, 418, 425, 424
295, 203, 210, 209, 419, 426, 425
296, 206, 212, 211, 422, 428, 427
297, 207, 213, 212, 423, 429, 428
298, 207, 214, 213, 423, 430, 429
299, 208, 215, 214, 424, 431, 430
300, 209, 216, 215, 425, 432, 431
