**INP GENERATOR - CRYSTALLON 
**FILENAME = C3D8example
*NODE,NSET=NC3D8example
 1, -5.774, -5.774, 5.774
 2, -3.906, -6.509, 6.509
 3, -1.4, -7.001, 7.001
 4, 1.4, -7.001, 7.001
 5, 3.906, -6.509, 6.509
 6, 5.774, -5.774, 5.774
 7, -6.509, -3.906, 6.509
 8, -4.575, -4.575, 7.625
 9, -1.69, -5.071, 8.452
 10, 1.69, -5.071, 8.452
 11, 4.575, -4.575, 7.625
 12, 6.509, -3.906, 6.509
 13, -7.001, -1.4, 7.001
 14, -5.071, -1.69, 8.452
 15, -1.925, -1.925, 9.623
 16, 1.925, -1.925, 9.623
 17, 5.071, -1.69, 8.452
 18, 7.001, -1.4, 7.001
 19, -7.001, 1.4, 7.001
 20, -5.071, 1.69, 8.452
 21, -1.925, 1.925, 9.623
 22, 1.925, 1.925, 9.623
 23, 5.071, 1.69, 8.452
 24, 7.001, 1.4, 7.001
 25, -6.509, 3.906, 6.509
 26, -4.575, 4.575, 7.625
 27, -1.69, 5.071, 8.452
 28, 1.69, 5.071, 8.452
 29, 4.575, 4.575, 7.625
 30, 6.509, 3.906, 6.509
 31, -5.774, 5.774, 5.774
 32, -3.906, 6.509, 6.509
 33, -1.4, 7.001, 7.001
 34, 1.4, 7.001, 7.001
 35, 3.906, 6.509, 6.509
 36, 5.774, 5.774, 5.774
 37, 5.774, -5.774, 5.774
 38, 6.509, -6.509, 3.906
 39, 7.001, -7.001, 1.4
 40, 7.001, -7.001, -1.4
 41, 6.509, -6.509, -3.906
 42, 5.774, -5.774, -5.774
 43, 6.509, -3.906, 6.509
 44, 7.625, -4.575, 4.575
 45, 8.452, -5.071, 1.69
 46, 8.452, -5.071, -1.69
 47, 7.625, -4.575, -4.575
 48, 6.509, -3.906, -6.509
 49, 7.001, -1.4, 7.001
 50, 8.452, -1.69, 5.071
 51, 9.623, -1.925, 1.925
 52, 9.623, -1.925, -1.925
 53, 8.452, -1.69, -5.071
 54, 7.001, -1.4, -7.001
 55, 7.001, 1.4, 7.001
 56, 8.452, 1.69, 5.071
 57, 9.623, 1.925, 1.925
 58, 9.623, 1.925, -1.925
 59, 8.452, 1.69, -5.071
 60, 7.001, 1.4, -7.001
 61, 6.509, 3.906, 6.509
 62, 7.625, 4.575, 4.575
 63, 8.452, 5.071, 1.69
 64, 8.452, 5.071, -1.69
 65, 7.625, 4.575, -4.575
 66, 6.509, 3.906, -6.509
 67, 5.774, 5.774, 5.774
 68, 6.509, 6.509, 3.906
 69, 7.001, 7.001, 1.4
 70, 7.001, 7.001, -1.4
 71, 6.509, 6.509, -3.906
 72, 5.774, 5.774, -5.774
 73, 5.774, -5.774, -5.774
 74, 3.906, -6.509, -6.509
 75, 1.4, -7.001, -7.001
 76, -1.4, -7.001, -7.001
 77, -3.906, -6.509, -6.509
 78, -5.774, -5.774, -5.774
 79, 6.509, -3.906, -6.509
 80, 4.575, -4.575, -7.625
 81, 1.69, -5.071, -8.452
 82, -1.69, -5.071, -8.452
 83, -4.575, -4.575, -7.625
 84, -6.509, -3.906, -6.509
 85, 7.001, -1.4, -7.001
 86, 5.071, -1.69, -8.452
 87, 1.925, -1.925, -9.623
 88, -1.925, -1.925, -9.623
 89, -5.071, -1.69, -8.452
 90, -7.001, -1.4, -7.001
 91, 7.001, 1.4, -7.001
 92, 5.071, 1.69, -8.452
 93, 1.925, 1.925, -9.623
 94, -1.925, 1.925, -9.623
 95, -5.071, 1.69, -8.452
 96, -7.001, 1.4, -7.001
 97, 6.509, 3.906, -6.509
 98, 4.575, 4.575, -7.625
 99, 1.69, 5.071, -8.452
 100, -1.69, 5.071, -8.452
 101, -4.575, 4.575, -7.625
 102, -6.509, 3.906, -6.509
 103, 5.774, 5.774, -5.774
 104, 3.906, 6.509, -6.509
 105, 1.4, 7.001, -7.001
 106, -1.4, 7.001, -7.001
 107, -3.906, 6.509, -6.509
 108, -5.774, 5.774, -5.774
 109, -5.774, -5.774, -5.774
 110, -6.509, -6.509, -3.906
 111, -7.001, -7.001, -1.4
 112, -7.001, -7.001, 1.4
 113, -6.509, -6.509, 3.906
 114, -5.774, -5.774, 5.774
 115, -6.509, -3.906, -6.509
 116, -7.625, -4.575, -4.575
 117, -8.452, -5.071, -1.69
 118, -8.452, -5.071, 1.69
 119, -7.625, -4.575, 4.575
 120, -6.509, -3.906, 6.509
 121, -7.001, -1.4, -7.001
 122, -8.452, -1.69, -5.071
 123, -9.623, -1.925, -1.925
 124, -9.623, -1.925, 1.925
 125, -8.452, -1.69, 5.071
 126, -7.001, -1.4, 7.001
 127, -7.001, 1.4, -7.001
 128, -8.452, 1.69, -5.071
 129, -9.623, 1.925, -1.925
 130, -9.623, 1.925, 1.925
 131, -8.452, 1.69, 5.071
 132, -7.001, 1.4, 7.001
 133, -6.509, 3.906, -6.509
 134, -7.625, 4.575, -4.575
 135, -8.452, 5.071, -1.69
 136, -8.452, 5.071, 1.69
 137, -7.625, 4.575, 4.575
 138, -6.509, 3.906, 6.509
 139, -5.774, 5.774, -5.774
 140, -6.509, 6.509, -3.906
 141, -7.001, 7.001, -1.4
 142, -7.001, 7.001, 1.4
 143, -6.509, 6.509, 3.906
 144, -5.774, 5.774, 5.774
 145, 5.774, -5.774, -5.774
 146, 6.509, -6.509, -3.906
 147, 7.001, -7.001, -1.4
 148, 7.001, -7.001, 1.4
 149, 6.509, -6.509, 3.906
 150, 5.774, -5.774, 5.774
 151, 3.906, -6.509, -6.509
 152, 4.575, -7.625, -4.575
 153, 5.071, -8.452, -1.69
 154, 5.071, -8.452, 1.69
 155, 4.575, -7.625, 4.575
 156, 3.906, -6.509, 6.509
 157, 1.4, -7.001, -7.001
 158, 1.69, -8.452, -5.071
 159, 1.925, -9.623, -1.925
 160, 1.925, -9.623, 1.925
 161, 1.69, -8.452, 5.071
 162, 1.4, -7.001, 7.001
 163, -1.4, -7.001, -7.001
 164, -1.69, -8.452, -5.071
 165, -1.925, -9.623, -1.925
 166, -1.925, -9.623, 1.925
 167, -1.69, -8.452, 5.071
 168, -1.4, -7.001, 7.001
 169, -3.906, -6.509, -6.509
 170, -4.575, -7.625, -4.575
 171, -5.071, -8.452, -1.69
 172, -5.071, -8.452, 1.69
 173, -4.575, -7.625, 4.575
 174, -3.906, -6.509, 6.509
 175, -5.774, -5.774, -5.774
 176, -6.509, -6.509, -3.906
 177, -7.001, -7.001, -1.4
 178, -7.001, -7.001, 1.4
 179, -6.509, -6.509, 3.906
 180, -5.774, -5.774, 5.774
 181, -5.774, 5.774, -5.774
 182, -6.509, 6.509, -3.906
 183, -7.001, 7.001, -1.4
 184, -7.001, 7.001, 1.4
 185, -6.509, 6.509, 3.906
 186, -5.774, 5.774, 5.774
 187, -3.906, 6.509, -6.509
 188, -4.575, 7.625, -4.575
 189, -5.071, 8.452, -1.69
 190, -5.071, 8.452, 1.69
 191, -4.575, 7.625, 4.575
 192, -3.906, 6.509, 6.509
 193, -1.4, 7.001, -7.001
 194, -1.69, 8.452, -5.071
 195, -1.925, 9.623, -1.925
 196, -1.925, 9.623, 1.925
 197, -1.69, 8.452, 5.071
 198, -1.4, 7.001, 7.001
 199, 1.4, 7.001, -7.001
 200, 1.69, 8.452, -5.071
 201, 1.925, 9.623, -1.925
 202, 1.925, 9.623, 1.925
 203, 1.69, 8.452, 5.071
 204, 1.4, 7.001, 7.001
 205, 3.906, 6.509, -6.509
 206, 4.575, 7.625, -4.575
 207, 5.071, 8.452, -1.69
 208, 5.071, 8.452, 1.69
 209, 4.575, 7.625, 4.575
 210, 3.906, 6.509, 6.509
 211, 5.774, 5.774, -5.774
 212, 6.509, 6.509, -3.906
 213, 7.001, 7.001, -1.4
 214, 7.001, 7.001, 1.4
 215, 6.509, 6.509, 3.906
 216, 5.774, 5.774, 5.774
 217, -6.351, -6.351, 6.351
 218, -4.296, -7.16, 7.16
 219, -1.54, -7.702, 7.702
 220, 1.54, -7.702, 7.702
 221, 4.296, -7.16, 7.16
 222, 6.351, -6.351, 6.351
 223, -7.16, -4.296, 7.16
 224, -5.032, -5.032, 8.387
 225, -1.859, -5.578, 9.297
 226, 1.859, -5.578, 9.297
 227, 5.032, -5.032, 8.387
 228, 7.16, -4.296, 7.16
 229, -7.702, -1.54, 7.702
 230, -5.578, -1.859, 9.297
 231, -2.117, -2.117, 10.585
 232, 2.117, -2.117, 10.585
 233, 5.578, -1.859, 9.297
 234, 7.702, -1.54, 7.702
 235, -7.702, 1.54, 7.702
 236, -5.578, 1.859, 9.297
 237, -2.117, 2.117, 10.585
 238, 2.117, 2.117, 10.585
 239, 5.578, 1.859, 9.297
 240, 7.702, 1.54, 7.702
 241, -7.16, 4.296, 7.16
 242, -5.032, 5.032, 8.387
 243, -1.859, 5.578, 9.297
 244, 1.859, 5.578, 9.297
 245, 5.032, 5.032, 8.387
 246, 7.16, 4.296, 7.16
 247, -6.351, 6.351, 6.351
 248, -4.296, 7.16, 7.16
 249, -1.54, 7.702, 7.702
 250, 1.54, 7.702, 7.702
 251, 4.296, 7.16, 7.16
 252, 6.351, 6.351, 6.351
 253, 6.351, -6.351, 6.351
 254, 7.16, -7.16, 4.296
 255, 7.702, -7.702, 1.54
 256, 7.702, -7.702, -1.54
 257, 7.16, -7.16, -4.296
 258, 6.351, -6.351, -6.351
 259, 7.16, -4.296, 7.16
 260, 8.387, -5.032, 5.032
 261, 9.297, -5.578, 1.859
 262, 9.297, -5.578, -1.859
 263, 8.387, -5.032, -5.032
 264, 7.16, -4.296, -7.16
 265, 7.702, -1.54, 7.702
 266, 9.297, -1.859, 5.578
 267, 10.585, -2.117, 2.117
 268, 10.585, -2.117, -2.117
 269, 9.297, -1.859, -5.578
 270, 7.702, -1.54, -7.702
 271, 7.702, 1.54, 7.702
 272, 9.297, 1.859, 5.578
 273, 10.585, 2.117, 2.117
 274, 10.585, 2.117, -2.117
 275, 9.297, 1.859, -5.578
 276, 7.702, 1.54, -7.702
 277, 7.16, 4.296, 7.16
 278, 8.387, 5.032, 5.032
 279, 9.297, 5.578, 1.859
 280, 9.297, 5.578, -1.859
 281, 8.387, 5.032, -5.032
 282, 7.16, 4.296, -7.16
 283, 6.351, 6.351, 6.351
 284, 7.16, 7.16, 4.296
 285, 7.702, 7.702, 1.54
 286, 7.702, 7.702, -1.54
 287, 7.16, 7.16, -4.296
 288, 6.351, 6.351, -6.351
 289, 6.351, -6.351, -6.351
 290, 4.296, -7.16, -7.16
 291, 1.54, -7.702, -7.702
 292, -1.54, -7.702, -7.702
 293, -4.296, -7.16, -7.16
 294, -6.351, -6.351, -6.351
 295, 7.16, -4.296, -7.16
 296, 5.032, -5.032, -8.387
 297, 1.859, -5.578, -9.297
 298, -1.859, -5.578, -9.297
 299, -5.032, -5.032, -8.387
 300, -7.16, -4.296, -7.16
 301, 7.702, -1.54, -7.702
 302, 5.578, -1.859, -9.297
 303, 2.117, -2.117, -10.585
 304, -2.117, -2.117, -10.585
 305, -5.578, -1.859, -9.297
 306, -7.702, -1.54, -7.702
 307, 7.702, 1.54, -7.702
 308, 5.578, 1.859, -9.297
 309, 2.117, 2.117, -10.585
 310, -2.117, 2.117, -10.585
 311, -5.578, 1.859, -9.297
 312, -7.702, 1.54, -7.702
 313, 7.16, 4.296, -7.16
 314, 5.032, 5.032, -8.387
 315, 1.859, 5.578, -9.297
 316, -1.859, 5.578, -9.297
 317, -5.032, 5.032, -8.387
 318, -7.16, 4.296, -7.16
 319, 6.351, 6.351, -6.351
 320, 4.296, 7.16, -7.16
 321, 1.54, 7.702, -7.702
 322, -1.54, 7.702, -7.702
 323, -4.296, 7.16, -7.16
 324, -6.351, 6.351, -6.351
 325, -6.351, -6.351, -6.351
 326, -7.16, -7.16, -4.296
 327, -7.702, -7.702, -1.54
 328, -7.702, -7.702, 1.54
 329, -7.16, -7.16, 4.296
 330, -6.351, -6.351, 6.351
 331, -7.16, -4.296, -7.16
 332, -8.387, -5.032, -5.032
 333, -9.297, -5.578, -1.859
 334, -9.297, -5.578, 1.859
 335, -8.387, -5.032, 5.032
 336, -7.16, -4.296, 7.16
 337, -7.702, -1.54, -7.702
 338, -9.297, -1.859, -5.578
 339, -10.585, -2.117, -2.117
 340, -10.585, -2.117, 2.117
 341, -9.297, -1.859, 5.578
 342, -7.702, -1.54, 7.702
 343, -7.702, 1.54, -7.702
 344, -9.297, 1.859, -5.578
 345, -10.585, 2.117, -2.117
 346, -10.585, 2.117, 2.117
 347, -9.297, 1.859, 5.578
 348, -7.702, 1.54, 7.702
 349, -7.16, 4.296, -7.16
 350, -8.387, 5.032, -5.032
 351, -9.297, 5.578, -1.859
 352, -9.297, 5.578, 1.859
 353, -8.387, 5.032, 5.032
 354, -7.16, 4.296, 7.16
 355, -6.351, 6.351, -6.351
 356, -7.16, 7.16, -4.296
 357, -7.702, 7.702, -1.54
 358, -7.702, 7.702, 1.54
 359, -7.16, 7.16, 4.296
 360, -6.351, 6.351, 6.351
 361, 6.351, -6.351, -6.351
 362, 7.16, -7.16, -4.296
 363, 7.702, -7.702, -1.54
 364, 7.702, -7.702, 1.54
 365, 7.16, -7.16, 4.296
 366, 6.351, -6.351, 6.351
 367, 4.296, -7.16, -7.16
 368, 5.032, -8.387, -5.032
 369, 5.578, -9.297, -1.859
 370, 5.578, -9.297, 1.859
 371, 5.032, -8.387, 5.032
 372, 4.296, -7.16, 7.16
 373, 1.54, -7.702, -7.702
 374, 1.859, -9.297, -5.578
 375, 2.117, -10.585, -2.117
 376, 2.117, -10.585, 2.117
 377, 1.859, -9.297, 5.578
 378, 1.54, -7.702, 7.702
 379, -1.54, -7.702, -7.702
 380, -1.859, -9.297, -5.578
 381, -2.117, -10.585, -2.117
 382, -2.117, -10.585, 2.117
 383, -1.859, -9.297, 5.578
 384, -1.54, -7.702, 7.702
 385, -4.296, -7.16, -7.16
 386, -5.032, -8.387, -5.032
 387, -5.578, -9.297, -1.859
 388, -5.578, -9.297, 1.859
 389, -5.032, -8.387, 5.032
 390, -4.296, -7.16, 7.16
 391, -6.351, -6.351, -6.351
 392, -7.16, -7.16, -4.296
 393, -7.702, -7.702, -1.54
 394, -7.702, -7.702, 1.54
 395, -7.16, -7.16, 4.296
 396, -6.351, -6.351, 6.351
 397, -6.351, 6.351, -6.351
 398, -7.16, 7.16, -4.296
 399, -7.702, 7.702, -1.54
 400, -7.702, 7.702, 1.54
 401, -7.16, 7.16, 4.296
 402, -6.351, 6.351, 6.351
 403, -4.296, 7.16, -7.16
 404, -5.032, 8.387, -5.032
 405, -5.578, 9.297, -1.859
 406, -5.578, 9.297, 1.859
 407, -5.032, 8.387, 5.032
 408, -4.296, 7.16, 7.16
 409, -1.54, 7.702, -7.702
 410, -1.859, 9.297, -5.578
 411, -2.117, 10.585, -2.117
 412, -2.117, 10.585, 2.117
 413, -1.859, 9.297, 5.578
 414, -1.54, 7.702, 7.702
 415, 1.54, 7.702, -7.702
 416, 1.859, 9.297, -5.578
 417, 2.117, 10.585, -2.117
 418, 2.117, 10.585, 2.117
 419, 1.859, 9.297, 5.578
 420, 1.54, 7.702, 7.702
 421, 4.296, 7.16, -7.16
 422, 5.032, 8.387, -5.032
 423, 5.578, 9.297, -1.859
 424, 5.578, 9.297, 1.859
 425, 5.032, 8.387, 5.032
 426, 4.296, 7.16, 7.16
 427, 6.351, 6.351, -6.351
 428, 7.16, 7.16, -4.296
 429, 7.702, 7.702, -1.54
 430, 7.702, 7.702, 1.54
 431, 7.16, 7.16, 4.296
 432, 6.351, 6.351, 6.351
*ELEMENT,TYPE=C3D8,ELSET=EC3D8example
1, 1, 2, 8, 7, 217, 218, 224, 223
2, 2, 3, 9, 8, 218, 219, 225, 224
3, 3, 4, 10, 9, 219, 220, 226, 225
4, 4, 5, 11, 10, 220, 221, 227, 226
5, 5, 6, 12, 11, 221, 222, 228, 227
6, 7, 8, 14, 13, 223, 224, 230, 229
7, 8, 9, 15, 14, 224, 225, 231, 230
8, 9, 10, 16, 15, 225, 226, 232, 231
9, 10, 11, 17, 16, 226, 227, 233, 232
10, 11, 12, 18, 17, 227, 228, 234, 233
11, 13, 14, 20, 19, 229, 230, 236, 235
12, 14, 15, 21, 20, 230, 231, 237, 236
13, 15, 16, 22, 21, 231, 232, 238, 237
14, 16, 17, 23, 22, 232, 233, 239, 238
15, 17, 18, 24, 23, 233, 234, 240, 239
16, 19, 20, 26, 25, 235, 236, 242, 241
17, 20, 21, 27, 26, 236, 237, 243, 242
18, 21, 22, 28, 27, 237, 238, 244, 243
19, 22, 23, 29, 28, 238, 239, 245, 244
20, 23, 24, 30, 29, 239, 240, 246, 245
21, 25, 26, 32, 31, 241, 242, 248, 247
22, 26, 27, 33, 32, 242, 243, 249, 248
23, 27, 28, 34, 33, 243, 244, 250, 249
24, 28, 29, 35, 34, 244, 245, 251, 250
25, 29, 30, 36, 35, 245, 246, 252, 251
26, 37, 38, 44, 43, 253, 254, 260, 259
27, 38, 39, 45, 44, 254, 255, 261, 260
28, 39, 40, 46, 45, 255, 256, 262, 261
29, 40, 41, 47, 46, 256, 257, 263, 262
30, 41, 42, 48, 47, 257, 258, 264, 263
31, 43, 44, 50, 49, 259, 260, 266, 265
32, 44, 45, 51, 50, 260, 261, 267, 266
33, 45, 46, 52, 51, 261, 262, 268, 267
34, 46, 47, 53, 52, 262, 263, 269, 268
35, 47, 48, 54, 53, 263, 264, 270, 269
36, 49, 50, 56, 55, 265, 266, 272, 271
37, 50, 51, 57, 56, 266, 267, 273, 272
38, 51, 52, 58, 57, 267, 268, 274, 273
39, 52, 53, 59, 58, 268, 269, 275, 274
40, 53, 54, 60, 59, 269, 270, 276, 275
41, 55, 56, 62, 61, 271, 272, 278, 277
42, 56, 57, 63, 62, 272, 273, 279, 278
43, 57, 58, 64, 63, 273, 274, 280, 279
44, 58, 59, 65, 64, 274, 275, 281, 280
45, 59, 60, 66, 65, 275, 276, 282, 281
46, 61, 62, 68, 67, 277, 278, 284, 283
47, 62, 63, 69, 68, 278, 279, 285, 284
48, 63, 64, 70, 69, 279, 280, 286, 285
49, 64, 65, 71, 70, 280, 281, 287, 286
50, 65, 66, 72, 71, 281, 282, 288, 287
51, 73, 74, 80, 79, 289, 290, 296, 295
52, 74, 75, 81, 80, 290, 291, 297, 296
53, 75, 76, 82, 81, 291, 292, 298, 297
54, 76, 77, 83, 82, 292, 293, 299, 298
55, 77, 78, 84, 83, 293, 294, 300, 299
56, 79, 80, 86, 85, 295, 296, 302, 301
57, 80, 81, 87, 86, 296, 297, 303, 302
58, 81, 82, 88, 87, 297, 298, 304, 303
59, 82, 83, 89, 88, 298, 299, 305, 304
60, 83, 84, 90, 89, 299, 300, 306, 305
61, 85, 86, 92, 91, 301, 302, 308, 307
62, 86, 87, 93, 92, 302, 303, 309, 308
63, 87, 88, 94, 93, 303, 304, 310, 309
64, 88, 89, 95, 94, 304, 305, 311, 310
65, 89, 90, 96, 95, 305, 306, 312, 311
66, 91, 92, 98, 97, 307, 308, 314, 313
67, 92, 93, 99, 98, 308, 309, 315, 314
68, 93, 94, 100, 99, 309, 310, 316, 315
69, 94, 95, 101, 100, 310, 311, 317, 316
70, 95, 96, 102, 101, 311, 312, 318, 317
71, 97, 98, 104, 103, 313, 314, 320, 319
72, 98, 99, 105, 104, 314, 315, 321, 320
73, 99, 100, 106, 105, 315, 316, 322, 321
74, 100, 101, 107, 106, 316, 317, 323, 322
75, 101, 102, 108, 107, 317, 318, 324, 323
76, 109, 110, 116, 115, 325, 326, 332, 331
77, 110, 111, 117, 116, 326, 327, 333, 332
78, 111, 112, 118, 117, 327, 328, 334, 333
79, 112, 113, 119, 118, 328, 329, 335, 334
80, 113, 114, 120, 119, 329, 330, 336, 335
81, 115, 116, 122, 121, 331, 332, 338, 337
82, 116, 117, 123, 122, 332, 333, 339, 338
83, 117, 118, 124, 123, 333, 334, 340, 339
84, 118, 119, 125, 124, 334, 335, 341, 340
85, 119, 120, 126, 125, 335, 336, 342, 341
86, 121, 122, 128, 127, 337, 338, 344, 343
87, 122, 123, 129, 128, 338, 339, 345, 344
88, 123, 124, 130, 129, 339, 340, 346, 345
89, 124, 125, 131, 130, 340, 341, 347, 346
90, 125, 126, 132, 131, 341, 342, 348, 347
91, 127, 128, 134, 133, 343, 344, 350, 349
92, 128, 129, 135, 134, 344, 345, 351, 350
93, 129, 130, 136, 135, 345, 346, 352, 351
94, 130, 131, 137, 136, 346, 347, 353, 352
95, 131, 132, 138, 137, 347, 348, 354, 353
96, 133, 134, 140, 139, 349, 350, 356, 355
97, 134, 135, 141, 140, 350, 351, 357, 356
98, 135, 136, 142, 141, 351, 352, 358, 357
99, 136, 137, 143, 142, 352, 353, 359, 358
100, 137, 138, 144, 143, 353, 354, 360, 359
101, 145, 146, 152, 151, 361, 362, 368, 367
102, 146, 147, 153, 152, 362, 363, 369, 368
103, 147, 148, 154, 153, 363, 364, 370, 369
104, 148, 149, 155, 154, 364, 365, 371, 370
105, 149, 150, 156, 155, 365, 366, 372, 371
106, 151, 152, 158, 157, 367, 368, 374, 373
107, 152, 153, 159, 158, 368, 369, 375, 374
108, 153, 154, 160, 159, 369, 370, 376, 375
109, 154, 155, 161, 160, 370, 371, 377, 376
110, 155, 156, 162, 161, 371, 372, 378, 377
111, 157, 158, 164, 163, 373, 374, 380, 379
112, 158, 159, 165, 164, 374, 375, 381, 380
113, 159, 160, 166, 165, 375, 376, 382, 381
114, 160, 161, 167, 166, 376, 377, 383, 382
115, 161, 162, 168, 167, 377, 378, 384, 383
116, 163, 164, 170, 169, 379, 380, 386, 385
117, 164, 165, 171, 170, 380, 381, 387, 386
118, 165, 166, 172, 171, 381, 382, 388, 387
119, 166, 167, 173, 172, 382, 383, 389, 388
120, 167, 168, 174, 173, 383, 384, 390, 389
121, 169, 170, 176, 175, 385, 386, 392, 391
122, 170, 171, 177, 176, 386, 387, 393, 392
123, 171, 172, 178, 177, 387, 388, 394, 393
124, 172, 173, 179, 178, 388, 389, 395, 394
125, 173, 174, 180, 179, 389, 390, 396, 395
126, 181, 182, 188, 187, 397, 398, 404, 403
127, 182, 183, 189, 188, 398, 399, 405, 404
128, 183, 184, 190, 189, 399, 400, 406, 405
129, 184, 185, 191, 190, 400, 401, 407, 406
130, 185, 186, 192, 191, 401, 402, 408, 407
131, 187, 188, 194, 193, 403, 404, 410, 409
132, 188, 189, 195, 194, 404, 405, 411, 410
133, 189, 190, 196, 195, 405, 406, 412, 411
134, 190, 191, 197, 196, 406, 407, 413, 412
135, 191, 192, 198, 197, 407, 408, 414, 413
136, 193, 194, 200, 199, 409, 410, 416, 415
137, 194, 195, 201, 200, 410, 411, 417, 416
138, 195, 196, 202, 201, 411, 412, 418, 417
139, 196, 197, 203, 202, 412, 413, 419, 418
140, 197, 198, 204, 203, 413, 414, 420, 419
141, 199, 200, 206, 205, 415, 416, 422, 421
142, 200, 201, 207, 206, 416, 417, 423, 422
143, 201, 202, 208, 207, 417, 418, 424, 423
144, 202, 203, 209, 208, 418, 419, 425, 424
145, 203, 204, 210, 209, 419, 420, 426, 425
146, 205, 206, 212, 211, 421, 422, 428, 427
147, 206, 207, 213, 212, 422, 423, 429, 428
148, 207, 208, 214, 213, 423, 424, 430, 429
149, 208, 209, 215, 214, 424, 425, 431, 430
150, 209, 210, 216, 215, 425, 426, 432, 431
