**INP GENERATOR - CRYSTALLON 
**FILENAME = s3example
*NODE,NSET=Ns3example
 1, 10, 10, 20
 2, 10, 10, 16.667
 3, 10, 10, 13.333
 4, 10, 10, 10
 5, 10, 10, 6.667
 6, 10, 10, 3.333
 7, 10, 10, 0
 8, 10, 8.333, 19.167
 9, 10, 8.333, 15.833
 10, 10, 8.333, 12.5
 11, 10, 8.333, 9.167
 12, 10, 8.333, 5.833
 13, 10, 8.333, 2.5
 14, 10, 6.667, 20
 15, 10, 6.667, 16.667
 16, 10, 6.667, 13.333
 17, 10, 6.667, 10
 18, 10, 6.667, 6.667
 19, 10, 6.667, 3.333
 20, 10, 6.667, 0
 21, 10, 5, 17.5
 22, 10, 5, 14.167
 23, 10, 5, 10.833
 24, 10, 5, 7.5
 25, 10, 5, 4.167
 26, 10, 5, 0.833
 27, 10, 3.333, 20
 28, 10, 3.333, 16.667
 29, 10, 3.333, 13.333
 30, 10, 3.333, 10
 31, 10, 3.333, 6.667
 32, 10, 3.333, 3.333
 33, 10, 3.333, 0
 34, 10, 1.667, 19.167
 35, 10, 1.667, 15.833
 36, 10, 1.667, 12.5
 37, 10, 1.667, 9.167
 38, 10, 1.667, 5.833
 39, 10, 1.667, 2.5
 40, 10, 0, 20
 41, 10, 0, 16.667
 42, 10, 0, 13.333
 43, 10, 0, 10
 44, 10, 0, 6.667
 45, 10, 0, 3.333
 46, 10, 0, 0
 47, 10, -1.667, 17.5
 48, 10, -1.667, 14.167
 49, 10, -1.667, 10.833
 50, 10, -1.667, 7.5
 51, 10, -1.667, 4.167
 52, 10, -1.667, 0.833
 53, 10, -3.333, 20
 54, 10, -3.333, 16.667
 55, 10, -3.333, 13.333
 56, 10, -3.333, 10
 57, 10, -3.333, 6.667
 58, 10, -3.333, 3.333
 59, 10, -3.333, 0
 60, 10, -5, 19.167
 61, 10, -5, 15.833
 62, 10, -5, 12.5
 63, 10, -5, 9.167
 64, 10, -5, 5.833
 65, 10, -5, 2.5
 66, 10, -6.667, 20
 67, 10, -6.667, 16.667
 68, 10, -6.667, 13.333
 69, 10, -6.667, 10
 70, 10, -6.667, 6.667
 71, 10, -6.667, 3.333
 72, 10, -6.667, 0
 73, 10, -8.333, 17.5
 74, 10, -8.333, 14.167
 75, 10, -8.333, 10.833
 76, 10, -8.333, 7.5
 77, 10, -8.333, 4.167
 78, 10, -8.333, 0.833
 79, 10, -10, 16.667
 80, 10, -10, 13.333
 81, 10, -10, 10
 82, 10, -10, 6.667
 83, 10, -10, 3.333
 84, 10, -10, 0
 85, 9.167, 10, 15
 86, 9.167, 10, 8.333
 87, 9.167, 10, 1.667
 88, 9.167, 6.667, 18.333
 89, 9.167, 6.667, 11.667
 90, 9.167, 6.667, 5
 91, 9.167, 3.333, 15
 92, 9.167, 3.333, 8.333
 93, 9.167, 3.333, 1.667
 94, 9.167, 0, 18.333
 95, 9.167, 0, 11.667
 96, 9.167, 0, 5
 97, 9.167, -3.333, 15
 98, 9.167, -3.333, 8.333
 99, 9.167, -3.333, 1.667
 100, 9.167, -6.667, 18.333
 101, 9.167, -6.667, 11.667
 102, 9.167, -6.667, 5
 103, 9.167, -10, 15
 104, 9.167, -10, 8.333
 105, 9.167, -10, 1.667
 106, 8.333, 9.167, 20
 107, 8.333, 9.167, 13.333
 108, 8.333, 9.167, 6.667
 109, 8.333, 9.167, 0
 110, 8.333, 7.5, 16.667
 111, 8.333, 7.5, 10
 112, 8.333, 7.5, 3.333
 113, 8.333, 5.833, 20
 114, 8.333, 5.833, 13.333
 115, 8.333, 5.833, 6.667
 116, 8.333, 5.833, 0
 117, 8.333, 4.167, 16.667
 118, 8.333, 4.167, 10
 119, 8.333, 4.167, 3.333
 120, 8.333, 2.5, 20
 121, 8.333, 2.5, 13.333
 122, 8.333, 2.5, 6.667
 123, 8.333, 2.5, 0
 124, 8.333, 0.833, 16.667
 125, 8.333, 0.833, 10
 126, 8.333, 0.833, 3.333
 127, 8.333, -0.833, 20
 128, 8.333, -0.833, 13.333
 129, 8.333, -0.833, 6.667
 130, 8.333, -0.833, 0
 131, 8.333, -2.5, 16.667
 132, 8.333, -2.5, 10
 133, 8.333, -2.5, 3.333
 134, 8.333, -4.167, 20
 135, 8.333, -4.167, 13.333
 136, 8.333, -4.167, 6.667
 137, 8.333, -4.167, 0
 138, 8.333, -5.833, 16.667
 139, 8.333, -5.833, 10
 140, 8.333, -5.833, 3.333
 141, 8.333, -7.5, 20
 142, 8.333, -7.5, 13.333
 143, 8.333, -7.5, 6.667
 144, 8.333, -7.5, 0
 145, 8.333, -9.167, 16.667
 146, 8.333, -9.167, 10
 147, 8.333, -9.167, 3.333
 148, 8.333, 8.333, 18.333
 149, 8.333, 8.333, 11.667
 150, 8.333, 8.333, 5
 151, 8.333, 1.667, 18.333
 152, 8.333, 1.667, 11.667
 153, 8.333, 1.667, 5
 154, 8.333, -5, 18.333
 155, 8.333, -5, 11.667
 156, 8.333, -5, 5
 157, 8.333, 5, 18.333
 158, 8.333, 5, 11.667
 159, 8.333, 5, 5
 160, 8.333, 5, 15
 161, 8.333, 5, 8.333
 162, 8.333, 5, 1.667
 163, 8.333, -1.667, 18.333
 164, 8.333, -1.667, 11.667
 165, 8.333, -1.667, 5
 166, 8.333, -1.667, 15
 167, 8.333, -1.667, 8.333
 168, 8.333, -1.667, 1.667
 169, 8.333, -8.333, 18.333
 170, 8.333, -8.333, 11.667
 171, 8.333, -8.333, 5
 172, 8.333, -8.333, 15
 173, 8.333, -8.333, 8.333
 174, 8.333, -8.333, 1.667
 175, 8.333, 8.333, 15
 176, 8.333, 8.333, 8.333
 177, 8.333, 8.333, 1.667
 178, 8.333, 1.667, 15
 179, 8.333, 1.667, 8.333
 180, 8.333, 1.667, 1.667
 181, 8.333, -5, 15
 182, 8.333, -5, 8.333
 183, 8.333, -5, 1.667
 184, 7.5, 10, 18.333
 185, 7.5, 10, 11.667
 186, 7.5, 10, 5
 187, 7.5, 6.667, 15
 188, 7.5, 6.667, 8.333
 189, 7.5, 6.667, 1.667
 190, 7.5, 3.333, 18.333
 191, 7.5, 3.333, 11.667
 192, 7.5, 3.333, 5
 193, 7.5, 0, 15
 194, 7.5, 0, 8.333
 195, 7.5, 0, 1.667
 196, 7.5, -3.333, 18.333
 197, 7.5, -3.333, 11.667
 198, 7.5, -3.333, 5
 199, 7.5, -6.667, 15
 200, 7.5, -6.667, 8.333
 201, 7.5, -6.667, 1.667
 202, 7.5, -10, 18.333
 203, 7.5, -10, 11.667
 204, 7.5, -10, 5
 205, 6.667, 10, 20
 206, 6.667, 10, 16.667
 207, 6.667, 10, 13.333
 208, 6.667, 10, 10
 209, 6.667, 10, 6.667
 210, 6.667, 10, 3.333
 211, 6.667, 10, 0
 212, 6.667, 8.333, 17.5
 213, 6.667, 8.333, 14.167
 214, 6.667, 8.333, 10.833
 215, 6.667, 8.333, 7.5
 216, 6.667, 8.333, 4.167
 217, 6.667, 8.333, 0.833
 218, 6.667, 6.667, 20
 219, 6.667, 6.667, 16.667
 220, 6.667, 6.667, 13.333
 221, 6.667, 6.667, 10
 222, 6.667, 6.667, 6.667
 223, 6.667, 6.667, 3.333
 224, 6.667, 6.667, 0
 225, 6.667, 5, 19.167
 226, 6.667, 5, 15.833
 227, 6.667, 5, 12.5
 228, 6.667, 5, 9.167
 229, 6.667, 5, 5.833
 230, 6.667, 5, 2.5
 231, 6.667, 3.333, 20
 232, 6.667, 3.333, 16.667
 233, 6.667, 3.333, 13.333
 234, 6.667, 3.333, 10
 235, 6.667, 3.333, 6.667
 236, 6.667, 3.333, 3.333
 237, 6.667, 3.333, 0
 238, 6.667, 1.667, 17.5
 239, 6.667, 1.667, 14.167
 240, 6.667, 1.667, 10.833
 241, 6.667, 1.667, 7.5
 242, 6.667, 1.667, 4.167
 243, 6.667, 1.667, 0.833
 244, 6.667, 0, 20
 245, 6.667, 0, 16.667
 246, 6.667, 0, 13.333
 247, 6.667, 0, 10
 248, 6.667, 0, 6.667
 249, 6.667, 0, 3.333
 250, 6.667, 0, 0
 251, 6.667, -1.667, 19.167
 252, 6.667, -1.667, 15.833
 253, 6.667, -1.667, 12.5
 254, 6.667, -1.667, 9.167
 255, 6.667, -1.667, 5.833
 256, 6.667, -1.667, 2.5
 257, 6.667, -3.333, 20
 258, 6.667, -3.333, 16.667
 259, 6.667, -3.333, 13.333
 260, 6.667, -3.333, 10
 261, 6.667, -3.333, 6.667
 262, 6.667, -3.333, 3.333
 263, 6.667, -3.333, 0
 264, 6.667, -5, 17.5
 265, 6.667, -5, 14.167
 266, 6.667, -5, 10.833
 267, 6.667, -5, 7.5
 268, 6.667, -5, 4.167
 269, 6.667, -5, 0.833
 270, 6.667, -6.667, 20
 271, 6.667, -6.667, 16.667
 272, 6.667, -6.667, 13.333
 273, 6.667, -6.667, 10
 274, 6.667, -6.667, 6.667
 275, 6.667, -6.667, 3.333
 276, 6.667, -6.667, 0
 277, 6.667, -8.333, 19.167
 278, 6.667, -8.333, 15.833
 279, 6.667, -8.333, 12.5
 280, 6.667, -8.333, 9.167
 281, 6.667, -8.333, 5.833
 282, 6.667, -8.333, 2.5
 283, 6.667, -10, 20
 284, 6.667, -10, 16.667
 285, 6.667, -10, 13.333
 286, 6.667, -10, 10
 287, 6.667, -10, 6.667
 288, 6.667, -10, 3.333
 289, 6.667, -10, 0
 290, 5.833, 10, 15
 291, 5.833, 10, 8.333
 292, 5.833, 10, 1.667
 293, 5.833, 6.667, 18.333
 294, 5.833, 6.667, 11.667
 295, 5.833, 6.667, 5
 296, 5.833, 3.333, 15
 297, 5.833, 3.333, 8.333
 298, 5.833, 3.333, 1.667
 299, 5.833, 0, 18.333
 300, 5.833, 0, 11.667
 301, 5.833, 0, 5
 302, 5.833, -3.333, 15
 303, 5.833, -3.333, 8.333
 304, 5.833, -3.333, 1.667
 305, 5.833, -6.667, 18.333
 306, 5.833, -6.667, 11.667
 307, 5.833, -6.667, 5
 308, 5.833, -10, 15
 309, 5.833, -10, 8.333
 310, 5.833, -10, 1.667
 311, 5, 5, 18.333
 312, 5, 5, 11.667
 313, 5, 5, 5
 314, 5, -1.667, 18.333
 315, 5, -1.667, 11.667
 316, 5, -1.667, 5
 317, 5, -8.333, 18.333
 318, 5, -8.333, 11.667
 319, 5, -8.333, 5
 320, 5, 8.333, 15
 321, 5, 8.333, 8.333
 322, 5, 8.333, 1.667
 323, 5, 1.667, 15
 324, 5, 1.667, 8.333
 325, 5, 1.667, 1.667
 326, 5, -5, 15
 327, 5, -5, 8.333
 328, 5, -5, 1.667
 329, 5, 8.333, 18.333
 330, 5, 8.333, 11.667
 331, 5, 8.333, 5
 332, 5, 1.667, 18.333
 333, 5, 1.667, 11.667
 334, 5, 1.667, 5
 335, 5, -5, 18.333
 336, 5, -5, 11.667
 337, 5, -5, 5
 338, 5, 9.167, 16.667
 339, 5, 9.167, 10
 340, 5, 9.167, 3.333
 341, 5, 7.5, 20
 342, 5, 7.5, 13.333
 343, 5, 7.5, 6.667
 344, 5, 7.5, 0
 345, 5, 5.833, 16.667
 346, 5, 5.833, 10
 347, 5, 5.833, 3.333
 348, 5, 5, 15
 349, 5, 5, 8.333
 350, 5, 5, 1.667
 351, 5, 4.167, 20
 352, 5, 4.167, 13.333
 353, 5, 4.167, 6.667
 354, 5, 4.167, 0
 355, 5, 2.5, 16.667
 356, 5, 2.5, 10
 357, 5, 2.5, 3.333
 358, 5, 0.833, 20
 359, 5, 0.833, 13.333
 360, 5, 0.833, 6.667
 361, 5, 0.833, 0
 362, 5, -0.833, 16.667
 363, 5, -0.833, 10
 364, 5, -0.833, 3.333
 365, 5, -1.667, 15
 366, 5, -1.667, 8.333
 367, 5, -1.667, 1.667
 368, 5, -2.5, 20
 369, 5, -2.5, 13.333
 370, 5, -2.5, 6.667
 371, 5, -2.5, 0
 372, 5, -4.167, 16.667
 373, 5, -4.167, 10
 374, 5, -4.167, 3.333
 375, 5, -5.833, 20
 376, 5, -5.833, 13.333
 377, 5, -5.833, 6.667
 378, 5, -5.833, 0
 379, 5, -7.5, 16.667
 380, 5, -7.5, 10
 381, 5, -7.5, 3.333
 382, 5, -8.333, 15
 383, 5, -8.333, 8.333
 384, 5, -8.333, 1.667
 385, 5, -9.167, 20
 386, 5, -9.167, 13.333
 387, 5, -9.167, 6.667
 388, 5, -9.167, 0
 389, 4.167, 10, 18.333
 390, 4.167, 10, 11.667
 391, 4.167, 10, 5
 392, 4.167, 6.667, 15
 393, 4.167, 6.667, 8.333
 394, 4.167, 6.667, 1.667
 395, 4.167, 3.333, 18.333
 396, 4.167, 3.333, 11.667
 397, 4.167, 3.333, 5
 398, 4.167, 0, 15
 399, 4.167, 0, 8.333
 400, 4.167, 0, 1.667
 401, 4.167, -3.333, 18.333
 402, 4.167, -3.333, 11.667
 403, 4.167, -3.333, 5
 404, 4.167, -6.667, 15
 405, 4.167, -6.667, 8.333
 406, 4.167, -6.667, 1.667
 407, 4.167, -10, 18.333
 408, 4.167, -10, 11.667
 409, 4.167, -10, 5
 410, 3.333, 10, 20
 411, 3.333, 10, 16.667
 412, 3.333, 10, 13.333
 413, 3.333, 10, 10
 414, 3.333, 10, 6.667
 415, 3.333, 10, 3.333
 416, 3.333, 10, 0
 417, 3.333, 8.333, 19.167
 418, 3.333, 8.333, 15.833
 419, 3.333, 8.333, 12.5
 420, 3.333, 8.333, 9.167
 421, 3.333, 8.333, 5.833
 422, 3.333, 8.333, 2.5
 423, 3.333, 6.667, 20
 424, 3.333, 6.667, 16.667
 425, 3.333, 6.667, 13.333
 426, 3.333, 6.667, 10
 427, 3.333, 6.667, 6.667
 428, 3.333, 6.667, 3.333
 429, 3.333, 6.667, 0
 430, 3.333, 5, 17.5
 431, 3.333, 5, 14.167
 432, 3.333, 5, 10.833
 433, 3.333, 5, 7.5
 434, 3.333, 5, 4.167
 435, 3.333, 5, 0.833
 436, 3.333, 3.333, 20
 437, 3.333, 3.333, 16.667
 438, 3.333, 3.333, 13.333
 439, 3.333, 3.333, 10
 440, 3.333, 3.333, 6.667
 441, 3.333, 3.333, 3.333
 442, 3.333, 3.333, 0
 443, 3.333, 1.667, 19.167
 444, 3.333, 1.667, 15.833
 445, 3.333, 1.667, 12.5
 446, 3.333, 1.667, 9.167
 447, 3.333, 1.667, 5.833
 448, 3.333, 1.667, 2.5
 449, 3.333, 0, 20
 450, 3.333, 0, 16.667
 451, 3.333, 0, 13.333
 452, 3.333, 0, 10
 453, 3.333, 0, 6.667
 454, 3.333, 0, 3.333
 455, 3.333, 0, 0
 456, 3.333, -1.667, 17.5
 457, 3.333, -1.667, 14.167
 458, 3.333, -1.667, 10.833
 459, 3.333, -1.667, 7.5
 460, 3.333, -1.667, 4.167
 461, 3.333, -1.667, 0.833
 462, 3.333, -3.333, 20
 463, 3.333, -3.333, 16.667
 464, 3.333, -3.333, 13.333
 465, 3.333, -3.333, 10
 466, 3.333, -3.333, 6.667
 467, 3.333, -3.333, 3.333
 468, 3.333, -3.333, 0
 469, 3.333, -5, 19.167
 470, 3.333, -5, 15.833
 471, 3.333, -5, 12.5
 472, 3.333, -5, 9.167
 473, 3.333, -5, 5.833
 474, 3.333, -5, 2.5
 475, 3.333, -6.667, 20
 476, 3.333, -6.667, 16.667
 477, 3.333, -6.667, 13.333
 478, 3.333, -6.667, 10
 479, 3.333, -6.667, 6.667
 480, 3.333, -6.667, 3.333
 481, 3.333, -6.667, 0
 482, 3.333, -8.333, 17.5
 483, 3.333, -8.333, 14.167
 484, 3.333, -8.333, 10.833
 485, 3.333, -8.333, 7.5
 486, 3.333, -8.333, 4.167
 487, 3.333, -8.333, 0.833
 488, 3.333, -10, 20
 489, 3.333, -10, 16.667
 490, 3.333, -10, 13.333
 491, 3.333, -10, 10
 492, 3.333, -10, 6.667
 493, 3.333, -10, 3.333
 494, 3.333, -10, 0
 495, 2.5, 10, 15
 496, 2.5, 10, 8.333
 497, 2.5, 10, 1.667
 498, 2.5, 6.667, 18.333
 499, 2.5, 6.667, 11.667
 500, 2.5, 6.667, 5
 501, 2.5, 3.333, 15
 502, 2.5, 3.333, 8.333
 503, 2.5, 3.333, 1.667
 504, 2.5, 0, 18.333
 505, 2.5, 0, 11.667
 506, 2.5, 0, 5
 507, 2.5, -3.333, 15
 508, 2.5, -3.333, 8.333
 509, 2.5, -3.333, 1.667
 510, 2.5, -6.667, 18.333
 511, 2.5, -6.667, 11.667
 512, 2.5, -6.667, 5
 513, 2.5, -10, 15
 514, 2.5, -10, 8.333
 515, 2.5, -10, 1.667
 516, 1.667, 9.167, 20
 517, 1.667, 9.167, 13.333
 518, 1.667, 9.167, 6.667
 519, 1.667, 9.167, 0
 520, 1.667, 7.5, 16.667
 521, 1.667, 7.5, 10
 522, 1.667, 7.5, 3.333
 523, 1.667, 5.833, 20
 524, 1.667, 5.833, 13.333
 525, 1.667, 5.833, 6.667
 526, 1.667, 5.833, 0
 527, 1.667, 4.167, 16.667
 528, 1.667, 4.167, 10
 529, 1.667, 4.167, 3.333
 530, 1.667, 2.5, 20
 531, 1.667, 2.5, 13.333
 532, 1.667, 2.5, 6.667
 533, 1.667, 2.5, 0
 534, 1.667, 0.833, 16.667
 535, 1.667, 0.833, 10
 536, 1.667, 0.833, 3.333
 537, 1.667, -0.833, 20
 538, 1.667, -0.833, 13.333
 539, 1.667, -0.833, 6.667
 540, 1.667, -0.833, 0
 541, 1.667, -2.5, 16.667
 542, 1.667, -2.5, 10
 543, 1.667, -2.5, 3.333
 544, 1.667, -4.167, 20
 545, 1.667, -4.167, 13.333
 546, 1.667, -4.167, 6.667
 547, 1.667, -4.167, 0
 548, 1.667, -5.833, 16.667
 549, 1.667, -5.833, 10
 550, 1.667, -5.833, 3.333
 551, 1.667, -7.5, 20
 552, 1.667, -7.5, 13.333
 553, 1.667, -7.5, 6.667
 554, 1.667, -7.5, 0
 555, 1.667, -9.167, 16.667
 556, 1.667, -9.167, 10
 557, 1.667, -9.167, 3.333
 558, 1.667, 8.333, 18.333
 559, 1.667, 8.333, 11.667
 560, 1.667, 8.333, 5
 561, 1.667, 1.667, 18.333
 562, 1.667, 1.667, 11.667
 563, 1.667, 1.667, 5
 564, 1.667, -5, 18.333
 565, 1.667, -5, 11.667
 566, 1.667, -5, 5
 567, 1.667, 5, 18.333
 568, 1.667, 5, 11.667
 569, 1.667, 5, 5
 570, 1.667, 5, 15
 571, 1.667, 5, 8.333
 572, 1.667, 5, 1.667
 573, 1.667, -1.667, 18.333
 574, 1.667, -1.667, 11.667
 575, 1.667, -1.667, 5
 576, 1.667, -1.667, 15
 577, 1.667, -1.667, 8.333
 578, 1.667, -1.667, 1.667
 579, 1.667, -8.333, 18.333
 580, 1.667, -8.333, 11.667
 581, 1.667, -8.333, 5
 582, 1.667, -8.333, 15
 583, 1.667, -8.333, 8.333
 584, 1.667, -8.333, 1.667
 585, 1.667, 8.333, 15
 586, 1.667, 8.333, 8.333
 587, 1.667, 8.333, 1.667
 588, 1.667, 1.667, 15
 589, 1.667, 1.667, 8.333
 590, 1.667, 1.667, 1.667
 591, 1.667, -5, 15
 592, 1.667, -5, 8.333
 593, 1.667, -5, 1.667
 594, 0.833, 10, 18.333
 595, 0.833, 10, 11.667
 596, 0.833, 10, 5
 597, 0.833, 6.667, 15
 598, 0.833, 6.667, 8.333
 599, 0.833, 6.667, 1.667
 600, 0.833, 3.333, 18.333
 601, 0.833, 3.333, 11.667
 602, 0.833, 3.333, 5
 603, 0.833, 0, 15
 604, 0.833, 0, 8.333
 605, 0.833, 0, 1.667
 606, 0.833, -3.333, 18.333
 607, 0.833, -3.333, 11.667
 608, 0.833, -3.333, 5
 609, 0.833, -6.667, 15
 610, 0.833, -6.667, 8.333
 611, 0.833, -6.667, 1.667
 612, 0.833, -10, 18.333
 613, 0.833, -10, 11.667
 614, 0.833, -10, 5
 615, 0, 10, 20
 616, 0, 10, 16.667
 617, 0, 10, 13.333
 618, 0, 10, 10
 619, 0, 10, 6.667
 620, 0, 10, 3.333
 621, 0, 10, 0
 622, 0, 8.333, 17.5
 623, 0, 8.333, 14.167
 624, 0, 8.333, 10.833
 625, 0, 8.333, 7.5
 626, 0, 8.333, 4.167
 627, 0, 8.333, 0.833
 628, 0, 6.667, 20
 629, 0, 6.667, 16.667
 630, 0, 6.667, 13.333
 631, 0, 6.667, 10
 632, 0, 6.667, 6.667
 633, 0, 6.667, 3.333
 634, 0, 6.667, 0
 635, 0, 5, 19.167
 636, 0, 5, 15.833
 637, 0, 5, 12.5
 638, 0, 5, 9.167
 639, 0, 5, 5.833
 640, 0, 5, 2.5
 641, 0, 3.333, 20
 642, 0, 3.333, 16.667
 643, 0, 3.333, 13.333
 644, 0, 3.333, 10
 645, 0, 3.333, 6.667
 646, 0, 3.333, 3.333
 647, 0, 3.333, 0
 648, 0, 1.667, 17.5
 649, 0, 1.667, 14.167
 650, 0, 1.667, 10.833
 651, 0, 1.667, 7.5
 652, 0, 1.667, 4.167
 653, 0, 1.667, 0.833
 654, 0, 0, 20
 655, 0, 0, 16.667
 656, 0, 0, 13.333
 657, 0, 0, 10
 658, 0, 0, 6.667
 659, 0, 0, 3.333
 660, 0, 0, 0
 661, 0, -1.667, 19.167
 662, 0, -1.667, 15.833
 663, 0, -1.667, 12.5
 664, 0, -1.667, 9.167
 665, 0, -1.667, 5.833
 666, 0, -1.667, 2.5
 667, 0, -3.333, 20
 668, 0, -3.333, 16.667
 669, 0, -3.333, 13.333
 670, 0, -3.333, 10
 671, 0, -3.333, 6.667
 672, 0, -3.333, 3.333
 673, 0, -3.333, 0
 674, 0, -5, 17.5
 675, 0, -5, 14.167
 676, 0, -5, 10.833
 677, 0, -5, 7.5
 678, 0, -5, 4.167
 679, 0, -5, 0.833
 680, 0, -6.667, 20
 681, 0, -6.667, 16.667
 682, 0, -6.667, 13.333
 683, 0, -6.667, 10
 684, 0, -6.667, 6.667
 685, 0, -6.667, 3.333
 686, 0, -6.667, 0
 687, 0, -8.333, 19.167
 688, 0, -8.333, 15.833
 689, 0, -8.333, 12.5
 690, 0, -8.333, 9.167
 691, 0, -8.333, 5.833
 692, 0, -8.333, 2.5
 693, 0, -10, 20
 694, 0, -10, 16.667
 695, 0, -10, 13.333
 696, 0, -10, 10
 697, 0, -10, 6.667
 698, 0, -10, 3.333
 699, 0, -10, 0
 700, -0.833, 10, 15
 701, -0.833, 10, 8.333
 702, -0.833, 10, 1.667
 703, -0.833, 6.667, 18.333
 704, -0.833, 6.667, 11.667
 705, -0.833, 6.667, 5
 706, -0.833, 3.333, 15
 707, -0.833, 3.333, 8.333
 708, -0.833, 3.333, 1.667
 709, -0.833, 0, 18.333
 710, -0.833, 0, 11.667
 711, -0.833, 0, 5
 712, -0.833, -3.333, 15
 713, -0.833, -3.333, 8.333
 714, -0.833, -3.333, 1.667
 715, -0.833, -6.667, 18.333
 716, -0.833, -6.667, 11.667
 717, -0.833, -6.667, 5
 718, -0.833, -10, 15
 719, -0.833, -10, 8.333
 720, -0.833, -10, 1.667
 721, -1.667, 5, 18.333
 722, -1.667, 5, 11.667
 723, -1.667, 5, 5
 724, -1.667, -1.667, 18.333
 725, -1.667, -1.667, 11.667
 726, -1.667, -1.667, 5
 727, -1.667, -8.333, 18.333
 728, -1.667, -8.333, 11.667
 729, -1.667, -8.333, 5
 730, -1.667, 8.333, 15
 731, -1.667, 8.333, 8.333
 732, -1.667, 8.333, 1.667
 733, -1.667, 1.667, 15
 734, -1.667, 1.667, 8.333
 735, -1.667, 1.667, 1.667
 736, -1.667, -5, 15
 737, -1.667, -5, 8.333
 738, -1.667, -5, 1.667
 739, -1.667, 8.333, 18.333
 740, -1.667, 8.333, 11.667
 741, -1.667, 8.333, 5
 742, -1.667, 1.667, 18.333
 743, -1.667, 1.667, 11.667
 744, -1.667, 1.667, 5
 745, -1.667, -5, 18.333
 746, -1.667, -5, 11.667
 747, -1.667, -5, 5
 748, -1.667, 9.167, 16.667
 749, -1.667, 9.167, 10
 750, -1.667, 9.167, 3.333
 751, -1.667, 7.5, 20
 752, -1.667, 7.5, 13.333
 753, -1.667, 7.5, 6.667
 754, -1.667, 7.5, 0
 755, -1.667, 5.833, 16.667
 756, -1.667, 5.833, 10
 757, -1.667, 5.833, 3.333
 758, -1.667, 5, 15
 759, -1.667, 5, 8.333
 760, -1.667, 5, 1.667
 761, -1.667, 4.167, 20
 762, -1.667, 4.167, 13.333
 763, -1.667, 4.167, 6.667
 764, -1.667, 4.167, 0
 765, -1.667, 2.5, 16.667
 766, -1.667, 2.5, 10
 767, -1.667, 2.5, 3.333
 768, -1.667, 0.833, 20
 769, -1.667, 0.833, 13.333
 770, -1.667, 0.833, 6.667
 771, -1.667, 0.833, 0
 772, -1.667, -0.833, 16.667
 773, -1.667, -0.833, 10
 774, -1.667, -0.833, 3.333
 775, -1.667, -1.667, 15
 776, -1.667, -1.667, 8.333
 777, -1.667, -1.667, 1.667
 778, -1.667, -2.5, 20
 779, -1.667, -2.5, 13.333
 780, -1.667, -2.5, 6.667
 781, -1.667, -2.5, 0
 782, -1.667, -4.167, 16.667
 783, -1.667, -4.167, 10
 784, -1.667, -4.167, 3.333
 785, -1.667, -5.833, 20
 786, -1.667, -5.833, 13.333
 787, -1.667, -5.833, 6.667
 788, -1.667, -5.833, 0
 789, -1.667, -7.5, 16.667
 790, -1.667, -7.5, 10
 791, -1.667, -7.5, 3.333
 792, -1.667, -8.333, 15
 793, -1.667, -8.333, 8.333
 794, -1.667, -8.333, 1.667
 795, -1.667, -9.167, 20
 796, -1.667, -9.167, 13.333
 797, -1.667, -9.167, 6.667
 798, -1.667, -9.167, 0
 799, -2.5, 10, 18.333
 800, -2.5, 10, 11.667
 801, -2.5, 10, 5
 802, -2.5, 6.667, 15
 803, -2.5, 6.667, 8.333
 804, -2.5, 6.667, 1.667
 805, -2.5, 3.333, 18.333
 806, -2.5, 3.333, 11.667
 807, -2.5, 3.333, 5
 808, -2.5, 0, 15
 809, -2.5, 0, 8.333
 810, -2.5, 0, 1.667
 811, -2.5, -3.333, 18.333
 812, -2.5, -3.333, 11.667
 813, -2.5, -3.333, 5
 814, -2.5, -6.667, 15
 815, -2.5, -6.667, 8.333
 816, -2.5, -6.667, 1.667
 817, -2.5, -10, 18.333
 818, -2.5, -10, 11.667
 819, -2.5, -10, 5
 820, -3.333, 10, 20
 821, -3.333, 10, 16.667
 822, -3.333, 10, 13.333
 823, -3.333, 10, 10
 824, -3.333, 10, 6.667
 825, -3.333, 10, 3.333
 826, -3.333, 10, 0
 827, -3.333, 8.333, 19.167
 828, -3.333, 8.333, 15.833
 829, -3.333, 8.333, 12.5
 830, -3.333, 8.333, 9.167
 831, -3.333, 8.333, 5.833
 832, -3.333, 8.333, 2.5
 833, -3.333, 6.667, 20
 834, -3.333, 6.667, 16.667
 835, -3.333, 6.667, 13.333
 836, -3.333, 6.667, 10
 837, -3.333, 6.667, 6.667
 838, -3.333, 6.667, 3.333
 839, -3.333, 6.667, 0
 840, -3.333, 5, 17.5
 841, -3.333, 5, 14.167
 842, -3.333, 5, 10.833
 843, -3.333, 5, 7.5
 844, -3.333, 5, 4.167
 845, -3.333, 5, 0.833
 846, -3.333, 3.333, 20
 847, -3.333, 3.333, 16.667
 848, -3.333, 3.333, 13.333
 849, -3.333, 3.333, 10
 850, -3.333, 3.333, 6.667
 851, -3.333, 3.333, 3.333
 852, -3.333, 3.333, 0
 853, -3.333, 1.667, 19.167
 854, -3.333, 1.667, 15.833
 855, -3.333, 1.667, 12.5
 856, -3.333, 1.667, 9.167
 857, -3.333, 1.667, 5.833
 858, -3.333, 1.667, 2.5
 859, -3.333, 0, 20
 860, -3.333, 0, 16.667
 861, -3.333, 0, 13.333
 862, -3.333, 0, 10
 863, -3.333, 0, 6.667
 864, -3.333, 0, 3.333
 865, -3.333, 0, 0
 866, -3.333, -1.667, 17.5
 867, -3.333, -1.667, 14.167
 868, -3.333, -1.667, 10.833
 869, -3.333, -1.667, 7.5
 870, -3.333, -1.667, 4.167
 871, -3.333, -1.667, 0.833
 872, -3.333, -3.333, 20
 873, -3.333, -3.333, 16.667
 874, -3.333, -3.333, 13.333
 875, -3.333, -3.333, 10
 876, -3.333, -3.333, 6.667
 877, -3.333, -3.333, 3.333
 878, -3.333, -3.333, 0
 879, -3.333, -5, 19.167
 880, -3.333, -5, 15.833
 881, -3.333, -5, 12.5
 882, -3.333, -5, 9.167
 883, -3.333, -5, 5.833
 884, -3.333, -5, 2.5
 885, -3.333, -6.667, 20
 886, -3.333, -6.667, 16.667
 887, -3.333, -6.667, 13.333
 888, -3.333, -6.667, 10
 889, -3.333, -6.667, 6.667
 890, -3.333, -6.667, 3.333
 891, -3.333, -6.667, 0
 892, -3.333, -8.333, 17.5
 893, -3.333, -8.333, 14.167
 894, -3.333, -8.333, 10.833
 895, -3.333, -8.333, 7.5
 896, -3.333, -8.333, 4.167
 897, -3.333, -8.333, 0.833
 898, -3.333, -10, 20
 899, -3.333, -10, 16.667
 900, -3.333, -10, 13.333
 901, -3.333, -10, 10
 902, -3.333, -10, 6.667
 903, -3.333, -10, 3.333
 904, -3.333, -10, 0
 905, -4.167, 10, 15
 906, -4.167, 10, 8.333
 907, -4.167, 10, 1.667
 908, -4.167, 6.667, 18.333
 909, -4.167, 6.667, 11.667
 910, -4.167, 6.667, 5
 911, -4.167, 3.333, 15
 912, -4.167, 3.333, 8.333
 913, -4.167, 3.333, 1.667
 914, -4.167, 0, 18.333
 915, -4.167, 0, 11.667
 916, -4.167, 0, 5
 917, -4.167, -3.333, 15
 918, -4.167, -3.333, 8.333
 919, -4.167, -3.333, 1.667
 920, -4.167, -6.667, 18.333
 921, -4.167, -6.667, 11.667
 922, -4.167, -6.667, 5
 923, -4.167, -10, 15
 924, -4.167, -10, 8.333
 925, -4.167, -10, 1.667
 926, -5, 9.167, 20
 927, -5, 9.167, 13.333
 928, -5, 9.167, 6.667
 929, -5, 9.167, 0
 930, -5, 7.5, 16.667
 931, -5, 7.5, 10
 932, -5, 7.5, 3.333
 933, -5, 5.833, 20
 934, -5, 5.833, 13.333
 935, -5, 5.833, 6.667
 936, -5, 5.833, 0
 937, -5, 4.167, 16.667
 938, -5, 4.167, 10
 939, -5, 4.167, 3.333
 940, -5, 2.5, 20
 941, -5, 2.5, 13.333
 942, -5, 2.5, 6.667
 943, -5, 2.5, 0
 944, -5, 0.833, 16.667
 945, -5, 0.833, 10
 946, -5, 0.833, 3.333
 947, -5, -0.833, 20
 948, -5, -0.833, 13.333
 949, -5, -0.833, 6.667
 950, -5, -0.833, 0
 951, -5, -2.5, 16.667
 952, -5, -2.5, 10
 953, -5, -2.5, 3.333
 954, -5, -4.167, 20
 955, -5, -4.167, 13.333
 956, -5, -4.167, 6.667
 957, -5, -4.167, 0
 958, -5, -5.833, 16.667
 959, -5, -5.833, 10
 960, -5, -5.833, 3.333
 961, -5, -7.5, 20
 962, -5, -7.5, 13.333
 963, -5, -7.5, 6.667
 964, -5, -7.5, 0
 965, -5, -9.167, 16.667
 966, -5, -9.167, 10
 967, -5, -9.167, 3.333
 968, -5, 8.333, 18.333
 969, -5, 8.333, 11.667
 970, -5, 8.333, 5
 971, -5, 1.667, 18.333
 972, -5, 1.667, 11.667
 973, -5, 1.667, 5
 974, -5, -5, 18.333
 975, -5, -5, 11.667
 976, -5, -5, 5
 977, -5, 5, 18.333
 978, -5, 5, 11.667
 979, -5, 5, 5
 980, -5, 5, 15
 981, -5, 5, 8.333
 982, -5, 5, 1.667
 983, -5, -1.667, 18.333
 984, -5, -1.667, 11.667
 985, -5, -1.667, 5
 986, -5, -1.667, 15
 987, -5, -1.667, 8.333
 988, -5, -1.667, 1.667
 989, -5, -8.333, 18.333
 990, -5, -8.333, 11.667
 991, -5, -8.333, 5
 992, -5, -8.333, 15
 993, -5, -8.333, 8.333
 994, -5, -8.333, 1.667
 995, -5, 8.333, 15
 996, -5, 8.333, 8.333
 997, -5, 8.333, 1.667
 998, -5, 1.667, 15
 999, -5, 1.667, 8.333
 1000, -5, 1.667, 1.667
 1001, -5, -5, 15
 1002, -5, -5, 8.333
 1003, -5, -5, 1.667
 1004, -5.833, 10, 18.333
 1005, -5.833, 10, 11.667
 1006, -5.833, 10, 5
 1007, -5.833, 6.667, 15
 1008, -5.833, 6.667, 8.333
 1009, -5.833, 6.667, 1.667
 1010, -5.833, 3.333, 18.333
 1011, -5.833, 3.333, 11.667
 1012, -5.833, 3.333, 5
 1013, -5.833, 0, 15
 1014, -5.833, 0, 8.333
 1015, -5.833, 0, 1.667
 1016, -5.833, -3.333, 18.333
 1017, -5.833, -3.333, 11.667
 1018, -5.833, -3.333, 5
 1019, -5.833, -6.667, 15
 1020, -5.833, -6.667, 8.333
 1021, -5.833, -6.667, 1.667
 1022, -5.833, -10, 18.333
 1023, -5.833, -10, 11.667
 1024, -5.833, -10, 5
 1025, -6.667, 10, 20
 1026, -6.667, 10, 16.667
 1027, -6.667, 10, 13.333
 1028, -6.667, 10, 10
 1029, -6.667, 10, 6.667
 1030, -6.667, 10, 3.333
 1031, -6.667, 10, 0
 1032, -6.667, 8.333, 17.5
 1033, -6.667, 8.333, 14.167
 1034, -6.667, 8.333, 10.833
 1035, -6.667, 8.333, 7.5
 1036, -6.667, 8.333, 4.167
 1037, -6.667, 8.333, 0.833
 1038, -6.667, 6.667, 20
 1039, -6.667, 6.667, 16.667
 1040, -6.667, 6.667, 13.333
 1041, -6.667, 6.667, 10
 1042, -6.667, 6.667, 6.667
 1043, -6.667, 6.667, 3.333
 1044, -6.667, 6.667, 0
 1045, -6.667, 5, 19.167
 1046, -6.667, 5, 15.833
 1047, -6.667, 5, 12.5
 1048, -6.667, 5, 9.167
 1049, -6.667, 5, 5.833
 1050, -6.667, 5, 2.5
 1051, -6.667, 3.333, 20
 1052, -6.667, 3.333, 16.667
 1053, -6.667, 3.333, 13.333
 1054, -6.667, 3.333, 10
 1055, -6.667, 3.333, 6.667
 1056, -6.667, 3.333, 3.333
 1057, -6.667, 3.333, 0
 1058, -6.667, 1.667, 17.5
 1059, -6.667, 1.667, 14.167
 1060, -6.667, 1.667, 10.833
 1061, -6.667, 1.667, 7.5
 1062, -6.667, 1.667, 4.167
 1063, -6.667, 1.667, 0.833
 1064, -6.667, 0, 20
 1065, -6.667, 0, 16.667
 1066, -6.667, 0, 13.333
 1067, -6.667, 0, 10
 1068, -6.667, 0, 6.667
 1069, -6.667, 0, 3.333
 1070, -6.667, 0, 0
 1071, -6.667, -1.667, 19.167
 1072, -6.667, -1.667, 15.833
 1073, -6.667, -1.667, 12.5
 1074, -6.667, -1.667, 9.167
 1075, -6.667, -1.667, 5.833
 1076, -6.667, -1.667, 2.5
 1077, -6.667, -3.333, 20
 1078, -6.667, -3.333, 16.667
 1079, -6.667, -3.333, 13.333
 1080, -6.667, -3.333, 10
 1081, -6.667, -3.333, 6.667
 1082, -6.667, -3.333, 3.333
 1083, -6.667, -3.333, 0
 1084, -6.667, -5, 17.5
 1085, -6.667, -5, 14.167
 1086, -6.667, -5, 10.833
 1087, -6.667, -5, 7.5
 1088, -6.667, -5, 4.167
 1089, -6.667, -5, 0.833
 1090, -6.667, -6.667, 20
 1091, -6.667, -6.667, 16.667
 1092, -6.667, -6.667, 13.333
 1093, -6.667, -6.667, 10
 1094, -6.667, -6.667, 6.667
 1095, -6.667, -6.667, 3.333
 1096, -6.667, -6.667, 0
 1097, -6.667, -8.333, 19.167
 1098, -6.667, -8.333, 15.833
 1099, -6.667, -8.333, 12.5
 1100, -6.667, -8.333, 9.167
 1101, -6.667, -8.333, 5.833
 1102, -6.667, -8.333, 2.5
 1103, -6.667, -10, 20
 1104, -6.667, -10, 16.667
 1105, -6.667, -10, 13.333
 1106, -6.667, -10, 10
 1107, -6.667, -10, 6.667
 1108, -6.667, -10, 3.333
 1109, -6.667, -10, 0
 1110, -7.5, 10, 15
 1111, -7.5, 10, 8.333
 1112, -7.5, 10, 1.667
 1113, -7.5, 6.667, 18.333
 1114, -7.5, 6.667, 11.667
 1115, -7.5, 6.667, 5
 1116, -7.5, 3.333, 15
 1117, -7.5, 3.333, 8.333
 1118, -7.5, 3.333, 1.667
 1119, -7.5, 0, 18.333
 1120, -7.5, 0, 11.667
 1121, -7.5, 0, 5
 1122, -7.5, -3.333, 15
 1123, -7.5, -3.333, 8.333
 1124, -7.5, -3.333, 1.667
 1125, -7.5, -6.667, 18.333
 1126, -7.5, -6.667, 11.667
 1127, -7.5, -6.667, 5
 1128, -7.5, -10, 15
 1129, -7.5, -10, 8.333
 1130, -7.5, -10, 1.667
 1131, -8.333, 5, 18.333
 1132, -8.333, 5, 11.667
 1133, -8.333, 5, 5
 1134, -8.333, -1.667, 18.333
 1135, -8.333, -1.667, 11.667
 1136, -8.333, -1.667, 5
 1137, -8.333, -8.333, 18.333
 1138, -8.333, -8.333, 11.667
 1139, -8.333, -8.333, 5
 1140, -8.333, 8.333, 15
 1141, -8.333, 8.333, 8.333
 1142, -8.333, 8.333, 1.667
 1143, -8.333, 1.667, 15
 1144, -8.333, 1.667, 8.333
 1145, -8.333, 1.667, 1.667
 1146, -8.333, -5, 15
 1147, -8.333, -5, 8.333
 1148, -8.333, -5, 1.667
 1149, -8.333, 8.333, 18.333
 1150, -8.333, 8.333, 11.667
 1151, -8.333, 8.333, 5
 1152, -8.333, 1.667, 18.333
 1153, -8.333, 1.667, 11.667
 1154, -8.333, 1.667, 5
 1155, -8.333, -5, 18.333
 1156, -8.333, -5, 11.667
 1157, -8.333, -5, 5
 1158, -8.333, 9.167, 16.667
 1159, -8.333, 9.167, 10
 1160, -8.333, 9.167, 3.333
 1161, -8.333, 7.5, 20
 1162, -8.333, 7.5, 13.333
 1163, -8.333, 7.5, 6.667
 1164, -8.333, 7.5, 0
 1165, -8.333, 5.833, 16.667
 1166, -8.333, 5.833, 10
 1167, -8.333, 5.833, 3.333
 1168, -8.333, 5, 15
 1169, -8.333, 5, 8.333
 1170, -8.333, 5, 1.667
 1171, -8.333, 4.167, 20
 1172, -8.333, 4.167, 13.333
 1173, -8.333, 4.167, 6.667
 1174, -8.333, 4.167, 0
 1175, -8.333, 2.5, 16.667
 1176, -8.333, 2.5, 10
 1177, -8.333, 2.5, 3.333
 1178, -8.333, 0.833, 20
 1179, -8.333, 0.833, 13.333
 1180, -8.333, 0.833, 6.667
 1181, -8.333, 0.833, 0
 1182, -8.333, -0.833, 16.667
 1183, -8.333, -0.833, 10
 1184, -8.333, -0.833, 3.333
 1185, -8.333, -1.667, 15
 1186, -8.333, -1.667, 8.333
 1187, -8.333, -1.667, 1.667
 1188, -8.333, -2.5, 20
 1189, -8.333, -2.5, 13.333
 1190, -8.333, -2.5, 6.667
 1191, -8.333, -2.5, 0
 1192, -8.333, -4.167, 16.667
 1193, -8.333, -4.167, 10
 1194, -8.333, -4.167, 3.333
 1195, -8.333, -5.833, 20
 1196, -8.333, -5.833, 13.333
 1197, -8.333, -5.833, 6.667
 1198, -8.333, -5.833, 0
 1199, -8.333, -7.5, 16.667
 1200, -8.333, -7.5, 10
 1201, -8.333, -7.5, 3.333
 1202, -8.333, -8.333, 15
 1203, -8.333, -8.333, 8.333
 1204, -8.333, -8.333, 1.667
 1205, -8.333, -9.167, 20
 1206, -8.333, -9.167, 13.333
 1207, -8.333, -9.167, 6.667
 1208, -8.333, -9.167, 0
 1209, -9.167, 10, 18.333
 1210, -9.167, 10, 11.667
 1211, -9.167, 10, 5
 1212, -9.167, 6.667, 15
 1213, -9.167, 6.667, 8.333
 1214, -9.167, 6.667, 1.667
 1215, -9.167, 3.333, 18.333
 1216, -9.167, 3.333, 11.667
 1217, -9.167, 3.333, 5
 1218, -9.167, 0, 15
 1219, -9.167, 0, 8.333
 1220, -9.167, 0, 1.667
 1221, -9.167, -3.333, 18.333
 1222, -9.167, -3.333, 11.667
 1223, -9.167, -3.333, 5
 1224, -9.167, -6.667, 15
 1225, -9.167, -6.667, 8.333
 1226, -9.167, -6.667, 1.667
 1227, -9.167, -10, 18.333
 1228, -9.167, -10, 11.667
 1229, -9.167, -10, 5
 1230, -10, 10, 20
 1231, -10, 10, 16.667
 1232, -10, 10, 13.333
 1233, -10, 10, 10
 1234, -10, 10, 6.667
 1235, -10, 10, 3.333
 1236, -10, 8.333, 19.167
 1237, -10, 8.333, 15.833
 1238, -10, 8.333, 12.5
 1239, -10, 8.333, 9.167
 1240, -10, 8.333, 5.833
 1241, -10, 8.333, 2.5
 1242, -10, 6.667, 20
 1243, -10, 6.667, 16.667
 1244, -10, 6.667, 13.333
 1245, -10, 6.667, 10
 1246, -10, 6.667, 6.667
 1247, -10, 6.667, 3.333
 1248, -10, 6.667, 0
 1249, -10, 5, 17.5
 1250, -10, 5, 14.167
 1251, -10, 5, 10.833
 1252, -10, 5, 7.5
 1253, -10, 5, 4.167
 1254, -10, 5, 0.833
 1255, -10, 3.333, 20
 1256, -10, 3.333, 16.667
 1257, -10, 3.333, 13.333
 1258, -10, 3.333, 10
 1259, -10, 3.333, 6.667
 1260, -10, 3.333, 3.333
 1261, -10, 3.333, 0
 1262, -10, 1.667, 19.167
 1263, -10, 1.667, 15.833
 1264, -10, 1.667, 12.5
 1265, -10, 1.667, 9.167
 1266, -10, 1.667, 5.833
 1267, -10, 1.667, 2.5
 1268, -10, 0, 20
 1269, -10, 0, 16.667
 1270, -10, 0, 13.333
 1271, -10, 0, 10
 1272, -10, 0, 6.667
 1273, -10, 0, 3.333
 1274, -10, 0, 0
 1275, -10, -1.667, 17.5
 1276, -10, -1.667, 14.167
 1277, -10, -1.667, 10.833
 1278, -10, -1.667, 7.5
 1279, -10, -1.667, 4.167
 1280, -10, -1.667, 0.833
 1281, -10, -3.333, 20
 1282, -10, -3.333, 16.667
 1283, -10, -3.333, 13.333
 1284, -10, -3.333, 10
 1285, -10, -3.333, 6.667
 1286, -10, -3.333, 3.333
 1287, -10, -3.333, 0
 1288, -10, -5, 19.167
 1289, -10, -5, 15.833
 1290, -10, -5, 12.5
 1291, -10, -5, 9.167
 1292, -10, -5, 5.833
 1293, -10, -5, 2.5
 1294, -10, -6.667, 20
 1295, -10, -6.667, 16.667
 1296, -10, -6.667, 13.333
 1297, -10, -6.667, 10
 1298, -10, -6.667, 6.667
 1299, -10, -6.667, 3.333
 1300, -10, -6.667, 0
 1301, -10, -8.333, 17.5
 1302, -10, -8.333, 14.167
 1303, -10, -8.333, 10.833
 1304, -10, -8.333, 7.5
 1305, -10, -8.333, 4.167
 1306, -10, -8.333, 0.833
 1307, -10, -10, 20
 1308, -10, -10, 16.667
 1309, -10, -10, 13.333
 1310, -10, -10, 10
 1311, -10, -10, 6.667
 1312, -10, -10, 3.333
 1313, -10, -10, 0
*ELEMENT,TYPE=S3,ELSET=Es3example
1, 994, 964, 897
2, 994, 897, 925
3, 925, 903, 967
4, 967, 1108, 1102
5, 1021, 994, 1102
6, 1003, 1021, 960
7, 1003, 960, 884
8, 884, 877, 919
9, 919, 878, 957
10, 1003, 957, 1089
11, 1003, 1089, 1021
12, 1021, 1096, 964
13, 1089, 1148, 1198
14, 1148, 1226, 1198
15, 1306, 1300, 1226
16, 1208, 1313, 1306
17, 1130, 1109, 1208
18, 1108, 1130, 1102
19, 1102, 1204, 1201
20, 1095, 1201, 1127
21, 1095, 1127, 1088
22, 1095, 1088, 960
23, 960, 976, 922
24, 922, 991, 896
25, 903, 896, 967
26, 991, 1024, 967
27, 991, 1101, 1024
28, 1101, 1139, 1207
29, 1139, 1229, 1207
30, 1139, 1305, 1229
31, 1201, 1299, 1305
32, 1201, 1204, 1226
33, 1226, 1148, 1293
34, 1286, 1293, 1194
35, 1157, 1223, 1194
36, 1088, 1157, 1194
37, 1082, 1018, 1088
38, 1018, 1081, 956
39, 956, 876, 883
40, 976, 883, 922
41, 889, 963, 922
42, 991, 963, 1101
43, 1101, 1094, 1127
44, 1094, 1197, 1127
45, 1197, 1298, 1292
46, 1292, 1285, 1223
47, 1194, 1148, 1124
48, 1083, 1124, 1089
49, 988, 950, 871
50, 988, 871, 919
51, 919, 877, 953
52, 953, 1082, 1076
53, 1015, 988, 1076
54, 1000, 1015, 946
55, 1000, 946, 858
56, 858, 851, 913
57, 913, 852, 943
58, 1000, 943, 1063
59, 1000, 1063, 1015
60, 1015, 1070, 950
61, 1063, 1145, 1181
62, 1145, 1220, 1181
63, 1280, 1274, 1220
64, 1191, 1287, 1280
65, 1124, 1083, 1191
66, 1082, 1124, 1076
67, 1076, 1187, 1184
68, 1069, 1184, 1121
69, 1069, 1121, 1062
70, 1069, 1062, 946
71, 946, 973, 916
72, 916, 985, 870
73, 877, 870, 953
74, 985, 1018, 953
75, 985, 1075, 1018
76, 1075, 1136, 1190
77, 1136, 1223, 1190
78, 1136, 1279, 1223
79, 1184, 1273, 1279
80, 1184, 1187, 1220
81, 1220, 1145, 1267
82, 1260, 1267, 1177
83, 1154, 1217, 1177
84, 1062, 1154, 1177
85, 1056, 1012, 1062
86, 1012, 1055, 942
87, 942, 850, 857
88, 973, 857, 916
89, 863, 949, 916
90, 985, 949, 1075
91, 1075, 1068, 1121
92, 1068, 1180, 1121
93, 1180, 1272, 1266
94, 1266, 1259, 1217
95, 1177, 1145, 1118
96, 1057, 1118, 1063
97, 982, 936, 845
98, 982, 845, 913
99, 913, 851, 939
100, 939, 1056, 1050
101, 1009, 982, 1050
102, 997, 1009, 932
103, 997, 932, 832
104, 832, 825, 907
105, 907, 826, 929
106, 997, 929, 1037
107, 997, 1037, 1009
108, 1009, 1044, 936
109, 1037, 1142, 1164
110, 1142, 1214, 1164
111, 1254, 1248, 1214
112, 1174, 1261, 1254
113, 1118, 1057, 1174
114, 1056, 1118, 1050
115, 1050, 1170, 1167
116, 1043, 1167, 1115
117, 1043, 1115, 1036
118, 1043, 1036, 932
119, 932, 970, 910
120, 910, 979, 844
121, 851, 844, 939
122, 979, 1012, 939
123, 979, 1049, 1012
124, 1049, 1133, 1173
125, 1133, 1217, 1173
126, 1133, 1253, 1217
127, 1167, 1247, 1253
128, 1167, 1170, 1214
129, 1214, 1142, 1241
130, 1235, 1241, 1160
131, 1151, 1211, 1160
132, 1036, 1151, 1160
133, 1030, 1006, 1036
134, 1006, 1029, 928
135, 928, 824, 831
136, 970, 831, 910
137, 837, 935, 910
138, 979, 935, 1049
139, 1049, 1042, 1115
140, 1042, 1163, 1115
141, 1163, 1246, 1240
142, 1240, 1234, 1211
143, 1160, 1142, 1112
144, 1031, 1112, 1037
145, 584, 554, 487
146, 584, 487, 515
147, 515, 493, 557
148, 557, 698, 692
149, 611, 584, 692
150, 593, 611, 550
151, 593, 550, 474
152, 474, 467, 509
153, 509, 468, 547
154, 593, 547, 679
155, 593, 679, 611
156, 611, 686, 554
157, 679, 738, 788
158, 738, 816, 788
159, 897, 891, 816
160, 798, 904, 897
161, 720, 699, 798
162, 698, 720, 692
163, 692, 794, 791
164, 685, 791, 717
165, 685, 717, 678
166, 685, 678, 550
167, 550, 566, 512
168, 512, 581, 486
169, 493, 486, 557
170, 581, 614, 557
171, 581, 691, 614
172, 691, 729, 797
173, 729, 819, 797
174, 729, 896, 819
175, 791, 890, 896
176, 791, 794, 816
177, 816, 738, 884
178, 877, 884, 784
179, 747, 813, 784
180, 678, 747, 784
181, 672, 608, 678
182, 608, 671, 546
183, 546, 466, 473
184, 566, 473, 512
185, 479, 553, 512
186, 581, 553, 691
187, 691, 684, 717
188, 684, 787, 717
189, 787, 889, 883
190, 883, 876, 813
191, 784, 738, 714
192, 673, 714, 679
193, 578, 540, 461
194, 578, 461, 509
195, 509, 467, 543
196, 543, 672, 666
197, 605, 578, 666
198, 590, 605, 536
199, 590, 536, 448
200, 448, 441, 503
201, 503, 442, 533
202, 590, 533, 653
203, 590, 653, 605
204, 605, 660, 540
205, 653, 735, 771
206, 735, 810, 771
207, 871, 865, 810
208, 781, 878, 871
209, 714, 673, 781
210, 672, 714, 666
211, 666, 777, 774
212, 659, 774, 711
213, 659, 711, 652
214, 659, 652, 536
215, 536, 563, 506
216, 506, 575, 460
217, 467, 460, 543
218, 575, 608, 543
219, 575, 665, 608
220, 665, 726, 780
221, 726, 813, 780
222, 726, 870, 813
223, 774, 864, 870
224, 774, 777, 810
225, 810, 735, 858
226, 851, 858, 767
227, 744, 807, 767
228, 652, 744, 767
229, 646, 602, 652
230, 602, 645, 532
231, 532, 440, 447
232, 563, 447, 506
233, 453, 539, 506
234, 575, 539, 665
235, 665, 658, 711
236, 658, 770, 711
237, 770, 863, 857
238, 857, 850, 807
239, 767, 735, 708
240, 647, 708, 653
241, 572, 526, 435
242, 572, 435, 503
243, 503, 441, 529
244, 529, 646, 640
245, 599, 572, 640
246, 587, 599, 522
247, 587, 522, 422
248, 422, 415, 497
249, 497, 416, 519
250, 587, 519, 627
251, 587, 627, 599
252, 599, 634, 526
253, 627, 732, 754
254, 732, 804, 754
255, 845, 839, 804
256, 764, 852, 845
257, 708, 647, 764
258, 646, 708, 640
259, 640, 760, 757
260, 633, 757, 705
261, 633, 705, 626
262, 633, 626, 522
263, 522, 560, 500
264, 500, 569, 434
265, 441, 434, 529
266, 569, 602, 529
267, 569, 639, 602
268, 639, 723, 763
269, 723, 807, 763
270, 723, 844, 807
271, 757, 838, 844
272, 757, 760, 804
273, 804, 732, 832
274, 825, 832, 750
275, 741, 801, 750
276, 626, 741, 750
277, 620, 596, 626
278, 596, 619, 518
279, 518, 414, 421
280, 560, 421, 500
281, 427, 525, 500
282, 569, 525, 639
283, 639, 632, 705
284, 632, 753, 705
285, 753, 837, 831
286, 831, 824, 801
287, 750, 732, 702
288, 621, 702, 627
289, 174, 144, 78
290, 174, 78, 105
291, 105, 83, 147
292, 147, 288, 282
293, 201, 174, 282
294, 183, 201, 140
295, 183, 140, 65
296, 65, 58, 99
297, 99, 59, 137
298, 183, 137, 269
299, 183, 269, 201
300, 201, 276, 144
301, 269, 328, 378
302, 328, 406, 378
303, 487, 481, 406
304, 388, 494, 487
305, 310, 289, 388
306, 288, 310, 282
307, 282, 384, 381
308, 275, 381, 307
309, 275, 307, 268
310, 275, 268, 140
311, 140, 156, 102
312, 102, 171, 77
313, 83, 77, 147
314, 171, 204, 147
315, 171, 281, 204
316, 281, 319, 387
317, 319, 409, 387
318, 319, 486, 409
319, 381, 480, 486
320, 381, 384, 406
321, 406, 328, 474
322, 467, 474, 374
323, 337, 403, 374
324, 268, 337, 374
325, 262, 198, 268
326, 198, 261, 136
327, 136, 57, 64
328, 156, 64, 102
329, 70, 143, 102
330, 171, 143, 281
331, 281, 274, 307
332, 274, 377, 307
333, 377, 479, 473
334, 473, 466, 403
335, 374, 328, 304
336, 263, 304, 269
337, 168, 130, 52
338, 168, 52, 99
339, 99, 58, 133
340, 133, 262, 256
341, 195, 168, 256
342, 180, 195, 126
343, 180, 126, 39
344, 39, 32, 93
345, 93, 33, 123
346, 180, 123, 243
347, 180, 243, 195
348, 195, 250, 130
349, 243, 325, 361
350, 325, 400, 361
351, 461, 455, 400
352, 371, 468, 461
353, 304, 263, 371
354, 262, 304, 256
355, 256, 367, 364
356, 249, 364, 301
357, 249, 301, 242
358, 249, 242, 126
359, 126, 153, 96
360, 96, 165, 51
361, 58, 51, 133
362, 165, 198, 133
363, 165, 255, 198
364, 255, 316, 370
365, 316, 403, 370
366, 316, 460, 403
367, 364, 454, 460
368, 364, 367, 400
369, 400, 325, 448
370, 441, 448, 357
371, 334, 397, 357
372, 242, 334, 357
373, 236, 192, 242
374, 192, 235, 122
375, 122, 31, 38
376, 153, 38, 96
377, 44, 129, 96
378, 165, 129, 255
379, 255, 248, 301
380, 248, 360, 301
381, 360, 453, 447
382, 447, 440, 397
383, 357, 325, 298
384, 237, 298, 243
385, 162, 116, 26
386, 162, 26, 93
387, 93, 32, 119
388, 119, 236, 230
389, 189, 162, 230
390, 177, 189, 112
391, 177, 112, 13
392, 13, 6, 87
393, 87, 7, 109
394, 177, 109, 217
395, 177, 217, 189
396, 189, 224, 116
397, 217, 322, 344
398, 322, 394, 344
399, 435, 429, 394
400, 354, 442, 435
401, 298, 237, 354
402, 236, 298, 230
403, 230, 350, 347
404, 223, 347, 295
405, 223, 295, 216
406, 223, 216, 112
407, 112, 150, 90
408, 90, 159, 25
409, 32, 25, 119
410, 159, 192, 119
411, 159, 229, 192
412, 229, 313, 353
413, 313, 397, 353
414, 313, 434, 397
415, 347, 428, 434
416, 347, 350, 394
417, 394, 322, 422
418, 415, 422, 340
419, 331, 391, 340
420, 216, 331, 340
421, 210, 186, 216
422, 186, 209, 108
423, 108, 5, 12
424, 150, 12, 90
425, 18, 115, 90
426, 159, 115, 229
427, 229, 222, 295
428, 222, 343, 295
429, 343, 427, 421
430, 421, 414, 391
431, 340, 322, 292
432, 211, 292, 217
433, 993, 963, 895
434, 993, 895, 924
435, 924, 901, 966
436, 966, 1106, 1100
437, 1020, 993, 1100
438, 1002, 1020, 959
439, 1002, 959, 882
440, 882, 875, 918
441, 918, 876, 956
442, 1002, 956, 1087
443, 1002, 1087, 1020
444, 1020, 1094, 963
445, 1087, 1147, 1197
446, 1147, 1225, 1197
447, 1304, 1298, 1225
448, 1207, 1311, 1304
449, 1129, 1107, 1207
450, 1106, 1129, 1100
451, 1100, 1203, 1200
452, 1093, 1200, 1126
453, 1093, 1126, 1086
454, 1093, 1086, 959
455, 959, 975, 921
456, 921, 990, 894
457, 901, 894, 966
458, 990, 1023, 966
459, 990, 1099, 1023
460, 1099, 1138, 1206
461, 1138, 1228, 1206
462, 1138, 1303, 1228
463, 1200, 1297, 1303
464, 1200, 1203, 1225
465, 1225, 1147, 1291
466, 1284, 1291, 1193
467, 1156, 1222, 1193
468, 1086, 1156, 1193
469, 1080, 1017, 1086
470, 1017, 1079, 955
471, 955, 874, 881
472, 975, 881, 921
473, 887, 962, 921
474, 990, 962, 1099
475, 1099, 1092, 1126
476, 1092, 1196, 1126
477, 1196, 1296, 1290
478, 1290, 1283, 1222
479, 1193, 1147, 1123
480, 1081, 1123, 1087
481, 987, 949, 869
482, 987, 869, 918
483, 918, 875, 952
484, 952, 1080, 1074
485, 1014, 987, 1074
486, 999, 1014, 945
487, 999, 945, 856
488, 856, 849, 912
489, 912, 850, 942
490, 999, 942, 1061
491, 999, 1061, 1014
492, 1014, 1068, 949
493, 1061, 1144, 1180
494, 1144, 1219, 1180
495, 1278, 1272, 1219
496, 1190, 1285, 1278
497, 1123, 1081, 1190
498, 1080, 1123, 1074
499, 1074, 1186, 1183
500, 1067, 1183, 1120
501, 1067, 1120, 1060
502, 1067, 1060, 945
503, 945, 972, 915
504, 915, 984, 868
505, 875, 868, 952
506, 984, 1017, 952
507, 984, 1073, 1017
508, 1073, 1135, 1189
509, 1135, 1222, 1189
510, 1135, 1277, 1222
511, 1183, 1271, 1277
512, 1183, 1186, 1219
513, 1219, 1144, 1265
514, 1258, 1265, 1176
515, 1153, 1216, 1176
516, 1060, 1153, 1176
517, 1054, 1011, 1060
518, 1011, 1053, 941
519, 941, 848, 855
520, 972, 855, 915
521, 861, 948, 915
522, 984, 948, 1073
523, 1073, 1066, 1120
524, 1066, 1179, 1120
525, 1179, 1270, 1264
526, 1264, 1257, 1216
527, 1176, 1144, 1117
528, 1055, 1117, 1061
529, 981, 935, 843
530, 981, 843, 912
531, 912, 849, 938
532, 938, 1054, 1048
533, 1008, 981, 1048
534, 996, 1008, 931
535, 996, 931, 830
536, 830, 823, 906
537, 906, 824, 928
538, 996, 928, 1035
539, 996, 1035, 1008
540, 1008, 1042, 935
541, 1035, 1141, 1163
542, 1141, 1213, 1163
543, 1252, 1246, 1213
544, 1173, 1259, 1252
545, 1117, 1055, 1173
546, 1054, 1117, 1048
547, 1048, 1169, 1166
548, 1041, 1166, 1114
549, 1041, 1114, 1034
550, 1041, 1034, 931
551, 931, 969, 909
552, 909, 978, 842
553, 849, 842, 938
554, 978, 1011, 938
555, 978, 1047, 1011
556, 1047, 1132, 1172
557, 1132, 1216, 1172
558, 1132, 1251, 1216
559, 1166, 1245, 1251
560, 1166, 1169, 1213
561, 1213, 1141, 1239
562, 1233, 1239, 1159
563, 1150, 1210, 1159
564, 1034, 1150, 1159
565, 1028, 1005, 1034
566, 1005, 1027, 927
567, 927, 822, 829
568, 969, 829, 909
569, 835, 934, 909
570, 978, 934, 1047
571, 1047, 1040, 1114
572, 1040, 1162, 1114
573, 1162, 1244, 1238
574, 1238, 1232, 1210
575, 1159, 1141, 1111
576, 1029, 1111, 1035
577, 583, 553, 485
578, 583, 485, 514
579, 514, 491, 556
580, 556, 696, 690
581, 610, 583, 690
582, 592, 610, 549
583, 592, 549, 472
584, 472, 465, 508
585, 508, 466, 546
586, 592, 546, 677
587, 592, 677, 610
588, 610, 684, 553
589, 677, 737, 787
590, 737, 815, 787
591, 895, 889, 815
592, 797, 902, 895
593, 719, 697, 797
594, 696, 719, 690
595, 690, 793, 790
596, 683, 790, 716
597, 683, 716, 676
598, 683, 676, 549
599, 549, 565, 511
600, 511, 580, 484
601, 491, 484, 556
602, 580, 613, 556
603, 580, 689, 613
604, 689, 728, 796
605, 728, 818, 796
606, 728, 894, 818
607, 790, 888, 894
608, 790, 793, 815
609, 815, 737, 882
610, 875, 882, 783
611, 746, 812, 783
612, 676, 746, 783
613, 670, 607, 676
614, 607, 669, 545
615, 545, 464, 471
616, 565, 471, 511
617, 477, 552, 511
618, 580, 552, 689
619, 689, 682, 716
620, 682, 786, 716
621, 786, 887, 881
622, 881, 874, 812
623, 783, 737, 713
624, 671, 713, 677
625, 577, 539, 459
626, 577, 459, 508
627, 508, 465, 542
628, 542, 670, 664
629, 604, 577, 664
630, 589, 604, 535
631, 589, 535, 446
632, 446, 439, 502
633, 502, 440, 532
634, 589, 532, 651
635, 589, 651, 604
636, 604, 658, 539
637, 651, 734, 770
638, 734, 809, 770
639, 869, 863, 809
640, 780, 876, 869
641, 713, 671, 780
642, 670, 713, 664
643, 664, 776, 773
644, 657, 773, 710
645, 657, 710, 650
646, 657, 650, 535
647, 535, 562, 505
648, 505, 574, 458
649, 465, 458, 542
650, 574, 607, 542
651, 574, 663, 607
652, 663, 725, 779
653, 725, 812, 779
654, 725, 868, 812
655, 773, 862, 868
656, 773, 776, 809
657, 809, 734, 856
658, 849, 856, 766
659, 743, 806, 766
660, 650, 743, 766
661, 644, 601, 650
662, 601, 643, 531
663, 531, 438, 445
664, 562, 445, 505
665, 451, 538, 505
666, 574, 538, 663
667, 663, 656, 710
668, 656, 769, 710
669, 769, 861, 855
670, 855, 848, 806
671, 766, 734, 707
672, 645, 707, 651
673, 571, 525, 433
674, 571, 433, 502
675, 502, 439, 528
676, 528, 644, 638
677, 598, 571, 638
678, 586, 598, 521
679, 586, 521, 420
680, 420, 413, 496
681, 496, 414, 518
682, 586, 518, 625
683, 586, 625, 598
684, 598, 632, 525
685, 625, 731, 753
686, 731, 803, 753
687, 843, 837, 803
688, 763, 850, 843
689, 707, 645, 763
690, 644, 707, 638
691, 638, 759, 756
692, 631, 756, 704
693, 631, 704, 624
694, 631, 624, 521
695, 521, 559, 499
696, 499, 568, 432
697, 439, 432, 528
698, 568, 601, 528
699, 568, 637, 601
700, 637, 722, 762
701, 722, 806, 762
702, 722, 842, 806
703, 756, 836, 842
704, 756, 759, 803
705, 803, 731, 830
706, 823, 830, 749
707, 740, 800, 749
708, 624, 740, 749
709, 618, 595, 624
710, 595, 617, 517
711, 517, 412, 419
712, 559, 419, 499
713, 425, 524, 499
714, 568, 524, 637
715, 637, 630, 704
716, 630, 752, 704
717, 752, 835, 829
718, 829, 822, 800
719, 749, 731, 701
720, 619, 701, 625
721, 173, 143, 76
722, 173, 76, 104
723, 104, 81, 146
724, 146, 286, 280
725, 200, 173, 280
726, 182, 200, 139
727, 182, 139, 63
728, 63, 56, 98
729, 98, 57, 136
730, 182, 136, 267
731, 182, 267, 200
732, 200, 274, 143
733, 267, 327, 377
734, 327, 405, 377
735, 485, 479, 405
736, 387, 492, 485
737, 309, 287, 387
738, 286, 309, 280
739, 280, 383, 380
740, 273, 380, 306
741, 273, 306, 266
742, 273, 266, 139
743, 139, 155, 101
744, 101, 170, 75
745, 81, 75, 146
746, 170, 203, 146
747, 170, 279, 203
748, 279, 318, 386
749, 318, 408, 386
750, 318, 484, 408
751, 380, 478, 484
752, 380, 383, 405
753, 405, 327, 472
754, 465, 472, 373
755, 336, 402, 373
756, 266, 336, 373
757, 260, 197, 266
758, 197, 259, 135
759, 135, 55, 62
760, 155, 62, 101
761, 68, 142, 101
762, 170, 142, 279
763, 279, 272, 306
764, 272, 376, 306
765, 376, 477, 471
766, 471, 464, 402
767, 373, 327, 303
768, 261, 303, 267
769, 167, 129, 50
770, 167, 50, 98
771, 98, 56, 132
772, 132, 260, 254
773, 194, 167, 254
774, 179, 194, 125
775, 179, 125, 37
776, 37, 30, 92
777, 92, 31, 122
778, 179, 122, 241
779, 179, 241, 194
780, 194, 248, 129
781, 241, 324, 360
782, 324, 399, 360
783, 459, 453, 399
784, 370, 466, 459
785, 303, 261, 370
786, 260, 303, 254
787, 254, 366, 363
788, 247, 363, 300
789, 247, 300, 240
790, 247, 240, 125
791, 125, 152, 95
792, 95, 164, 49
793, 56, 49, 132
794, 164, 197, 132
795, 164, 253, 197
796, 253, 315, 369
797, 315, 402, 369
798, 315, 458, 402
799, 363, 452, 458
800, 363, 366, 399
801, 399, 324, 446
802, 439, 446, 356
803, 333, 396, 356
804, 240, 333, 356
805, 234, 191, 240
806, 191, 233, 121
807, 121, 29, 36
808, 152, 36, 95
809, 42, 128, 95
810, 164, 128, 253
811, 253, 246, 300
812, 246, 359, 300
813, 359, 451, 445
814, 445, 438, 396
815, 356, 324, 297
816, 235, 297, 241
817, 161, 115, 24
818, 161, 24, 92
819, 92, 30, 118
820, 118, 234, 228
821, 188, 161, 228
822, 176, 188, 111
823, 176, 111, 11
824, 11, 4, 86
825, 86, 5, 108
826, 176, 108, 215
827, 176, 215, 188
828, 188, 222, 115
829, 215, 321, 343
830, 321, 393, 343
831, 433, 427, 393
832, 353, 440, 433
833, 297, 235, 353
834, 234, 297, 228
835, 228, 349, 346
836, 221, 346, 294
837, 221, 294, 214
838, 221, 214, 111
839, 111, 149, 89
840, 89, 158, 23
841, 30, 23, 118
842, 158, 191, 118
843, 158, 227, 191
844, 227, 312, 352
845, 312, 396, 352
846, 312, 432, 396
847, 346, 426, 432
848, 346, 349, 393
849, 393, 321, 420
850, 413, 420, 339
851, 330, 390, 339
852, 214, 330, 339
853, 208, 185, 214
854, 185, 207, 107
855, 107, 3, 10
856, 149, 10, 89
857, 16, 114, 89
858, 158, 114, 227
859, 227, 220, 294
860, 220, 342, 294
861, 342, 425, 419
862, 419, 412, 390
863, 339, 321, 291
864, 209, 291, 215
865, 992, 962, 893
866, 992, 893, 923
867, 923, 899, 965
868, 965, 1104, 1098
869, 1019, 992, 1098
870, 1001, 1019, 958
871, 1001, 958, 880
872, 880, 873, 917
873, 917, 874, 955
874, 1001, 955, 1085
875, 1001, 1085, 1019
876, 1019, 1092, 962
877, 1085, 1146, 1196
878, 1146, 1224, 1196
879, 1302, 1296, 1224
880, 1206, 1309, 1302
881, 1128, 1105, 1206
882, 1104, 1128, 1098
883, 1098, 1202, 1199
884, 1091, 1199, 1125
885, 1091, 1125, 1084
886, 1091, 1084, 958
887, 958, 974, 920
888, 920, 989, 892
889, 899, 892, 965
890, 989, 1022, 965
891, 989, 1097, 1022
892, 1097, 1137, 1205
893, 1137, 1227, 1205
894, 1137, 1301, 1227
895, 1199, 1295, 1301
896, 1199, 1202, 1224
897, 1224, 1146, 1289
898, 1282, 1289, 1192
899, 1155, 1221, 1192
900, 1084, 1155, 1192
901, 1078, 1016, 1084
902, 1016, 1077, 954
903, 954, 872, 879
904, 974, 879, 920
905, 885, 961, 920
906, 989, 961, 1097
907, 1097, 1090, 1125
908, 1090, 1195, 1125
909, 1195, 1294, 1288
910, 1288, 1281, 1221
911, 1192, 1146, 1122
912, 1079, 1122, 1085
913, 986, 948, 867
914, 986, 867, 917
915, 917, 873, 951
916, 951, 1078, 1072
917, 1013, 986, 1072
918, 998, 1013, 944
919, 998, 944, 854
920, 854, 847, 911
921, 911, 848, 941
922, 998, 941, 1059
923, 998, 1059, 1013
924, 1013, 1066, 948
925, 1059, 1143, 1179
926, 1143, 1218, 1179
927, 1276, 1270, 1218
928, 1189, 1283, 1276
929, 1122, 1079, 1189
930, 1078, 1122, 1072
931, 1072, 1185, 1182
932, 1065, 1182, 1119
933, 1065, 1119, 1058
934, 1065, 1058, 944
935, 944, 971, 914
936, 914, 983, 866
937, 873, 866, 951
938, 983, 1016, 951
939, 983, 1071, 1016
940, 1071, 1134, 1188
941, 1134, 1221, 1188
942, 1134, 1275, 1221
943, 1182, 1269, 1275
944, 1182, 1185, 1218
945, 1218, 1143, 1263
946, 1256, 1263, 1175
947, 1152, 1215, 1175
948, 1058, 1152, 1175
949, 1052, 1010, 1058
950, 1010, 1051, 940
951, 940, 846, 853
952, 971, 853, 914
953, 859, 947, 914
954, 983, 947, 1071
955, 1071, 1064, 1119
956, 1064, 1178, 1119
957, 1178, 1268, 1262
958, 1262, 1255, 1215
959, 1175, 1143, 1116
960, 1053, 1116, 1059
961, 980, 934, 841
962, 980, 841, 911
963, 911, 847, 937
964, 937, 1052, 1046
965, 1007, 980, 1046
966, 995, 1007, 930
967, 995, 930, 828
968, 828, 821, 905
969, 905, 822, 927
970, 995, 927, 1033
971, 995, 1033, 1007
972, 1007, 1040, 934
973, 1033, 1140, 1162
974, 1140, 1212, 1162
975, 1250, 1244, 1212
976, 1172, 1257, 1250
977, 1116, 1053, 1172
978, 1052, 1116, 1046
979, 1046, 1168, 1165
980, 1039, 1165, 1113
981, 1039, 1113, 1032
982, 1039, 1032, 930
983, 930, 968, 908
984, 908, 977, 840
985, 847, 840, 937
986, 977, 1010, 937
987, 977, 1045, 1010
988, 1045, 1131, 1171
989, 1131, 1215, 1171
990, 1131, 1249, 1215
991, 1165, 1243, 1249
992, 1165, 1168, 1212
993, 1212, 1140, 1237
994, 1231, 1237, 1158
995, 1149, 1209, 1158
996, 1032, 1149, 1158
997, 1026, 1004, 1032
998, 1004, 1025, 926
999, 926, 820, 827
1000, 968, 827, 908
1001, 833, 933, 908
1002, 977, 933, 1045
1003, 1045, 1038, 1113
1004, 1038, 1161, 1113
1005, 1161, 1242, 1236
1006, 1236, 1230, 1209
1007, 1158, 1140, 1110
1008, 1027, 1110, 1033
1009, 582, 552, 483
1010, 582, 483, 513
1011, 513, 489, 555
1012, 555, 694, 688
1013, 609, 582, 688
1014, 591, 609, 548
1015, 591, 548, 470
1016, 470, 463, 507
1017, 507, 464, 545
1018, 591, 545, 675
1019, 591, 675, 609
1020, 609, 682, 552
1021, 675, 736, 786
1022, 736, 814, 786
1023, 893, 887, 814
1024, 796, 900, 893
1025, 718, 695, 796
1026, 694, 718, 688
1027, 688, 792, 789
1028, 681, 789, 715
1029, 681, 715, 674
1030, 681, 674, 548
1031, 548, 564, 510
1032, 510, 579, 482
1033, 489, 482, 555
1034, 579, 612, 555
1035, 579, 687, 612
1036, 687, 727, 795
1037, 727, 817, 795
1038, 727, 892, 817
1039, 789, 886, 892
1040, 789, 792, 814
1041, 814, 736, 880
1042, 873, 880, 782
1043, 745, 811, 782
1044, 674, 745, 782
1045, 668, 606, 674
1046, 606, 667, 544
1047, 544, 462, 469
1048, 564, 469, 510
1049, 475, 551, 510
1050, 579, 551, 687
1051, 687, 680, 715
1052, 680, 785, 715
1053, 785, 885, 879
1054, 879, 872, 811
1055, 782, 736, 712
1056, 669, 712, 675
1057, 576, 538, 457
1058, 576, 457, 507
1059, 507, 463, 541
1060, 541, 668, 662
1061, 603, 576, 662
1062, 588, 603, 534
1063, 588, 534, 444
1064, 444, 437, 501
1065, 501, 438, 531
1066, 588, 531, 649
1067, 588, 649, 603
1068, 603, 656, 538
1069, 649, 733, 769
1070, 733, 808, 769
1071, 867, 861, 808
1072, 779, 874, 867
1073, 712, 669, 779
1074, 668, 712, 662
1075, 662, 775, 772
1076, 655, 772, 709
1077, 655, 709, 648
1078, 655, 648, 534
1079, 534, 561, 504
1080, 504, 573, 456
1081, 463, 456, 541
1082, 573, 606, 541
1083, 573, 661, 606
1084, 661, 724, 778
1085, 724, 811, 778
1086, 724, 866, 811
1087, 772, 860, 866
1088, 772, 775, 808
1089, 808, 733, 854
1090, 847, 854, 765
1091, 742, 805, 765
1092, 648, 742, 765
1093, 642, 600, 648
1094, 600, 641, 530
1095, 530, 436, 443
1096, 561, 443, 504
1097, 449, 537, 504
1098, 573, 537, 661
1099, 661, 654, 709
1100, 654, 768, 709
1101, 768, 859, 853
1102, 853, 846, 805
1103, 765, 733, 706
1104, 643, 706, 649
1105, 570, 524, 431
1106, 570, 431, 501
1107, 501, 437, 527
1108, 527, 642, 636
1109, 597, 570, 636
1110, 585, 597, 520
1111, 585, 520, 418
1112, 418, 411, 495
1113, 495, 412, 517
1114, 585, 517, 623
1115, 585, 623, 597
1116, 597, 630, 524
1117, 623, 730, 752
1118, 730, 802, 752
1119, 841, 835, 802
1120, 762, 848, 841
1121, 706, 643, 762
1122, 642, 706, 636
1123, 636, 758, 755
1124, 629, 755, 703
1125, 629, 703, 622
1126, 629, 622, 520
1127, 520, 558, 498
1128, 498, 567, 430
1129, 437, 430, 527
1130, 567, 600, 527
1131, 567, 635, 600
1132, 635, 721, 761
1133, 721, 805, 761
1134, 721, 840, 805
1135, 755, 834, 840
1136, 755, 758, 802
1137, 802, 730, 828
1138, 821, 828, 748
1139, 739, 799, 748
1140, 622, 739, 748
1141, 616, 594, 622
1142, 594, 615, 516
1143, 516, 410, 417
1144, 558, 417, 498
1145, 423, 523, 498
1146, 567, 523, 635
1147, 635, 628, 703
1148, 628, 751, 703
1149, 751, 833, 827
1150, 827, 820, 799
1151, 748, 730, 700
1152, 617, 700, 623
1153, 172, 142, 74
1154, 172, 74, 103
1155, 103, 79, 145
1156, 145, 284, 278
1157, 199, 172, 278
1158, 181, 199, 138
1159, 181, 138, 61
1160, 61, 54, 97
1161, 97, 55, 135
1162, 181, 135, 265
1163, 181, 265, 199
1164, 199, 272, 142
1165, 265, 326, 376
1166, 326, 404, 376
1167, 483, 477, 404
1168, 386, 490, 483
1169, 308, 285, 386
1170, 284, 308, 278
1171, 278, 382, 379
1172, 271, 379, 305
1173, 271, 305, 264
1174, 271, 264, 138
1175, 138, 154, 100
1176, 100, 169, 73
1177, 79, 73, 145
1178, 169, 202, 145
1179, 169, 277, 202
1180, 277, 317, 385
1181, 317, 407, 385
1182, 317, 482, 407
1183, 379, 476, 482
1184, 379, 382, 404
1185, 404, 326, 470
1186, 463, 470, 372
1187, 335, 401, 372
1188, 264, 335, 372
1189, 258, 196, 264
1190, 196, 257, 134
1191, 134, 53, 60
1192, 154, 60, 100
1193, 66, 141, 100
1194, 169, 141, 277
1195, 277, 270, 305
1196, 270, 375, 305
1197, 375, 475, 469
1198, 469, 462, 401
1199, 372, 326, 302
1200, 259, 302, 265
1201, 166, 128, 48
1202, 166, 48, 97
1203, 97, 54, 131
1204, 131, 258, 252
1205, 193, 166, 252
1206, 178, 193, 124
1207, 178, 124, 35
1208, 35, 28, 91
1209, 91, 29, 121
1210, 178, 121, 239
1211, 178, 239, 193
1212, 193, 246, 128
1213, 239, 323, 359
1214, 323, 398, 359
1215, 457, 451, 398
1216, 369, 464, 457
1217, 302, 259, 369
1218, 258, 302, 252
1219, 252, 365, 362
1220, 245, 362, 299
1221, 245, 299, 238
1222, 245, 238, 124
1223, 124, 151, 94
1224, 94, 163, 47
1225, 54, 47, 131
1226, 163, 196, 131
1227, 163, 251, 196
1228, 251, 314, 368
1229, 314, 401, 368
1230, 314, 456, 401
1231, 362, 450, 456
1232, 362, 365, 398
1233, 398, 323, 444
1234, 437, 444, 355
1235, 332, 395, 355
1236, 238, 332, 355
1237, 232, 190, 238
1238, 190, 231, 120
1239, 120, 27, 34
1240, 151, 34, 94
1241, 40, 127, 94
1242, 163, 127, 251
1243, 251, 244, 299
1244, 244, 358, 299
1245, 358, 449, 443
1246, 443, 436, 395
1247, 355, 323, 296
1248, 233, 296, 239
1249, 160, 114, 22
1250, 160, 22, 91
1251, 91, 28, 117
1252, 117, 232, 226
1253, 187, 160, 226
1254, 175, 187, 110
1255, 175, 110, 9
1256, 9, 2, 85
1257, 85, 3, 107
1258, 175, 107, 213
1259, 175, 213, 187
1260, 187, 220, 114
1261, 213, 320, 342
1262, 320, 392, 342
1263, 431, 425, 392
1264, 352, 438, 431
1265, 296, 233, 352
1266, 232, 296, 226
1267, 226, 348, 345
1268, 219, 345, 293
1269, 219, 293, 212
1270, 219, 212, 110
1271, 110, 148, 88
1272, 88, 157, 21
1273, 28, 21, 117
1274, 157, 190, 117
1275, 157, 225, 190
1276, 225, 311, 351
1277, 311, 395, 351
1278, 311, 430, 395
1279, 345, 424, 430
1280, 345, 348, 392
1281, 392, 320, 418
1282, 411, 418, 338
1283, 329, 389, 338
1284, 212, 329, 338
1285, 206, 184, 212
1286, 184, 205, 106
1287, 106, 1, 8
1288, 148, 8, 88
1289, 14, 113, 88
1290, 157, 113, 225
1291, 225, 218, 293
1292, 218, 341, 293
1293, 341, 423, 417
1294, 417, 410, 389
1295, 338, 320, 290
1296, 207, 290, 213
1297, 964, 891, 897
1298, 897, 904, 925
1299, 925, 967, 994
1300, 967, 1102, 994
1301, 1021, 1102, 1095
1302, 1021, 1095, 960
1303, 960, 890, 884
1304, 884, 919, 1003
1305, 919, 957, 1003
1306, 957, 1083, 1089
1307, 1089, 1096, 1021
1308, 1021, 964, 994
1309, 1089, 1198, 1096
1310, 1226, 1300, 1198
1311, 1306, 1226, 1204
1312, 1208, 1306, 1204
1313, 1130, 1208, 1204
1314, 1130, 1204, 1102
1315, 1102, 1201, 1095
1316, 1201, 1139, 1127
1317, 1127, 1157, 1088
1318, 1088, 976, 960
1319, 960, 922, 890
1320, 922, 896, 890
1321, 896, 991, 967
1322, 1024, 1108, 967
1323, 1101, 1107, 1024
1324, 1101, 1207, 1107
1325, 1229, 1311, 1207
1326, 1305, 1312, 1229
1327, 1201, 1305, 1139
1328, 1201, 1226, 1299
1329, 1226, 1293, 1299
1330, 1293, 1148, 1194
1331, 1223, 1286, 1194
1332, 1088, 1194, 1082
1333, 1018, 976, 1088
1334, 1018, 956, 976
1335, 956, 883, 976
1336, 883, 889, 922
1337, 963, 991, 922
1338, 963, 1094, 1101
1339, 1101, 1127, 1139
1340, 1197, 1157, 1127
1341, 1197, 1292, 1157
1342, 1292, 1223, 1157
1343, 1194, 1124, 1082
1344, 1124, 1148, 1089
1345, 950, 865, 871
1346, 871, 878, 919
1347, 919, 953, 988
1348, 953, 1076, 988
1349, 1015, 1076, 1069
1350, 1015, 1069, 946
1351, 946, 864, 858
1352, 858, 913, 1000
1353, 913, 943, 1000
1354, 943, 1057, 1063
1355, 1063, 1070, 1015
1356, 1015, 950, 988
1357, 1063, 1181, 1070
1358, 1220, 1274, 1181
1359, 1280, 1220, 1187
1360, 1191, 1280, 1187
1361, 1124, 1191, 1187
1362, 1124, 1187, 1076
1363, 1076, 1184, 1069
1364, 1184, 1136, 1121
1365, 1121, 1154, 1062
1366, 1062, 973, 946
1367, 946, 916, 864
1368, 916, 870, 864
1369, 870, 985, 953
1370, 1018, 1082, 953
1371, 1075, 1081, 1018
1372, 1075, 1190, 1081
1373, 1223, 1285, 1190
1374, 1279, 1286, 1223
1375, 1184, 1279, 1136
1376, 1184, 1220, 1273
1377, 1220, 1267, 1273
1378, 1267, 1145, 1177
1379, 1217, 1260, 1177
1380, 1062, 1177, 1056
1381, 1012, 973, 1062
1382, 1012, 942, 973
1383, 942, 857, 973
1384, 857, 863, 916
1385, 949, 985, 916
1386, 949, 1068, 1075
1387, 1075, 1121, 1136
1388, 1180, 1154, 1121
1389, 1180, 1266, 1154
1390, 1266, 1217, 1154
1391, 1177, 1118, 1056
1392, 1118, 1145, 1063
1393, 936, 839, 845
1394, 845, 852, 913
1395, 913, 939, 982
1396, 939, 1050, 982
1397, 1009, 1050, 1043
1398, 1009, 1043, 932
1399, 932, 838, 832
1400, 832, 907, 997
1401, 907, 929, 997
1402, 929, 1031, 1037
1403, 1037, 1044, 1009
1404, 1009, 936, 982
1405, 1037, 1164, 1044
1406, 1214, 1248, 1164
1407, 1254, 1214, 1170
1408, 1174, 1254, 1170
1409, 1118, 1174, 1170
1410, 1118, 1170, 1050
1411, 1050, 1167, 1043
1412, 1167, 1133, 1115
1413, 1115, 1151, 1036
1414, 1036, 970, 932
1415, 932, 910, 838
1416, 910, 844, 838
1417, 844, 979, 939
1418, 1012, 1056, 939
1419, 1049, 1055, 1012
1420, 1049, 1173, 1055
1421, 1217, 1259, 1173
1422, 1253, 1260, 1217
1423, 1167, 1253, 1133
1424, 1167, 1214, 1247
1425, 1214, 1241, 1247
1426, 1241, 1142, 1160
1427, 1211, 1235, 1160
1428, 1036, 1160, 1030
1429, 1006, 970, 1036
1430, 1006, 928, 970
1431, 928, 831, 970
1432, 831, 837, 910
1433, 935, 979, 910
1434, 935, 1042, 1049
1435, 1049, 1115, 1133
1436, 1163, 1151, 1115
1437, 1163, 1240, 1151
1438, 1240, 1211, 1151
1439, 1160, 1112, 1030
1440, 1112, 1142, 1037
1441, 554, 481, 487
1442, 487, 494, 515
1443, 515, 557, 584
1444, 557, 692, 584
1445, 611, 692, 685
1446, 611, 685, 550
1447, 550, 480, 474
1448, 474, 509, 593
1449, 509, 547, 593
1450, 547, 673, 679
1451, 679, 686, 611
1452, 611, 554, 584
1453, 679, 788, 686
1454, 816, 891, 788
1455, 897, 816, 794
1456, 798, 897, 794
1457, 720, 798, 794
1458, 720, 794, 692
1459, 692, 791, 685
1460, 791, 729, 717
1461, 717, 747, 678
1462, 678, 566, 550
1463, 550, 512, 480
1464, 512, 486, 480
1465, 486, 581, 557
1466, 614, 698, 557
1467, 691, 697, 614
1468, 691, 797, 697
1469, 819, 902, 797
1470, 896, 903, 819
1471, 791, 896, 729
1472, 791, 816, 890
1473, 816, 884, 890
1474, 884, 738, 784
1475, 813, 877, 784
1476, 678, 784, 672
1477, 608, 566, 678
1478, 608, 546, 566
1479, 546, 473, 566
1480, 473, 479, 512
1481, 553, 581, 512
1482, 553, 684, 691
1483, 691, 717, 729
1484, 787, 747, 717
1485, 787, 883, 747
1486, 883, 813, 747
1487, 784, 714, 672
1488, 714, 738, 679
1489, 540, 455, 461
1490, 461, 468, 509
1491, 509, 543, 578
1492, 543, 666, 578
1493, 605, 666, 659
1494, 605, 659, 536
1495, 536, 454, 448
1496, 448, 503, 590
1497, 503, 533, 590
1498, 533, 647, 653
1499, 653, 660, 605
1500, 605, 540, 578
1501, 653, 771, 660
1502, 810, 865, 771
1503, 871, 810, 777
1504, 781, 871, 777
1505, 714, 781, 777
1506, 714, 777, 666
1507, 666, 774, 659
1508, 774, 726, 711
1509, 711, 744, 652
1510, 652, 563, 536
1511, 536, 506, 454
1512, 506, 460, 454
1513, 460, 575, 543
1514, 608, 672, 543
1515, 665, 671, 608
1516, 665, 780, 671
1517, 813, 876, 780
1518, 870, 877, 813
1519, 774, 870, 726
1520, 774, 810, 864
1521, 810, 858, 864
1522, 858, 735, 767
1523, 807, 851, 767
1524, 652, 767, 646
1525, 602, 563, 652
1526, 602, 532, 563
1527, 532, 447, 563
1528, 447, 453, 506
1529, 539, 575, 506
1530, 539, 658, 665
1531, 665, 711, 726
1532, 770, 744, 711
1533, 770, 857, 744
1534, 857, 807, 744
1535, 767, 708, 646
1536, 708, 735, 653
1537, 526, 429, 435
1538, 435, 442, 503
1539, 503, 529, 572
1540, 529, 640, 572
1541, 599, 640, 633
1542, 599, 633, 522
1543, 522, 428, 422
1544, 422, 497, 587
1545, 497, 519, 587
1546, 519, 621, 627
1547, 627, 634, 599
1548, 599, 526, 572
1549, 627, 754, 634
1550, 804, 839, 754
1551, 845, 804, 760
1552, 764, 845, 760
1553, 708, 764, 760
1554, 708, 760, 640
1555, 640, 757, 633
1556, 757, 723, 705
1557, 705, 741, 626
1558, 626, 560, 522
1559, 522, 500, 428
1560, 500, 434, 428
1561, 434, 569, 529
1562, 602, 646, 529
1563, 639, 645, 602
1564, 639, 763, 645
1565, 807, 850, 763
1566, 844, 851, 807
1567, 757, 844, 723
1568, 757, 804, 838
1569, 804, 832, 838
1570, 832, 732, 750
1571, 801, 825, 750
1572, 626, 750, 620
1573, 596, 560, 626
1574, 596, 518, 560
1575, 518, 421, 560
1576, 421, 427, 500
1577, 525, 569, 500
1578, 525, 632, 639
1579, 639, 705, 723
1580, 753, 741, 705
1581, 753, 831, 741
1582, 831, 801, 741
1583, 750, 702, 620
1584, 702, 732, 627
1585, 144, 72, 78
1586, 78, 84, 105
1587, 105, 147, 174
1588, 147, 282, 174
1589, 201, 282, 275
1590, 201, 275, 140
1591, 140, 71, 65
1592, 65, 99, 183
1593, 99, 137, 183
1594, 137, 263, 269
1595, 269, 276, 201
1596, 201, 144, 174
1597, 269, 378, 276
1598, 406, 481, 378
1599, 487, 406, 384
1600, 388, 487, 384
1601, 310, 388, 384
1602, 310, 384, 282
1603, 282, 381, 275
1604, 381, 319, 307
1605, 307, 337, 268
1606, 268, 156, 140
1607, 140, 102, 71
1608, 102, 77, 71
1609, 77, 171, 147
1610, 204, 288, 147
1611, 281, 287, 204
1612, 281, 387, 287
1613, 409, 492, 387
1614, 486, 493, 409
1615, 381, 486, 319
1616, 381, 406, 480
1617, 406, 474, 480
1618, 474, 328, 374
1619, 403, 467, 374
1620, 268, 374, 262
1621, 198, 156, 268
1622, 198, 136, 156
1623, 136, 64, 156
1624, 64, 70, 102
1625, 143, 171, 102
1626, 143, 274, 281
1627, 281, 307, 319
1628, 377, 337, 307
1629, 377, 473, 337
1630, 473, 403, 337
1631, 374, 304, 262
1632, 304, 328, 269
1633, 130, 46, 52
1634, 52, 59, 99
1635, 99, 133, 168
1636, 133, 256, 168
1637, 195, 256, 249
1638, 195, 249, 126
1639, 126, 45, 39
1640, 39, 93, 180
1641, 93, 123, 180
1642, 123, 237, 243
1643, 243, 250, 195
1644, 195, 130, 168
1645, 243, 361, 250
1646, 400, 455, 361
1647, 461, 400, 367
1648, 371, 461, 367
1649, 304, 371, 367
1650, 304, 367, 256
1651, 256, 364, 249
1652, 364, 316, 301
1653, 301, 334, 242
1654, 242, 153, 126
1655, 126, 96, 45
1656, 96, 51, 45
1657, 51, 165, 133
1658, 198, 262, 133
1659, 255, 261, 198
1660, 255, 370, 261
1661, 403, 466, 370
1662, 460, 467, 403
1663, 364, 460, 316
1664, 364, 400, 454
1665, 400, 448, 454
1666, 448, 325, 357
1667, 397, 441, 357
1668, 242, 357, 236
1669, 192, 153, 242
1670, 192, 122, 153
1671, 122, 38, 153
1672, 38, 44, 96
1673, 129, 165, 96
1674, 129, 248, 255
1675, 255, 301, 316
1676, 360, 334, 301
1677, 360, 447, 334
1678, 447, 397, 334
1679, 357, 298, 236
1680, 298, 325, 243
1681, 116, 20, 26
1682, 26, 33, 93
1683, 93, 119, 162
1684, 119, 230, 162
1685, 189, 230, 223
1686, 189, 223, 112
1687, 112, 19, 13
1688, 13, 87, 177
1689, 87, 109, 177
1690, 109, 211, 217
1691, 217, 224, 189
1692, 189, 116, 162
1693, 217, 344, 224
1694, 394, 429, 344
1695, 435, 394, 350
1696, 354, 435, 350
1697, 298, 354, 350
1698, 298, 350, 230
1699, 230, 347, 223
1700, 347, 313, 295
1701, 295, 331, 216
1702, 216, 150, 112
1703, 112, 90, 19
1704, 90, 25, 19
1705, 25, 159, 119
1706, 192, 236, 119
1707, 229, 235, 192
1708, 229, 353, 235
1709, 397, 440, 353
1710, 434, 441, 397
1711, 347, 434, 313
1712, 347, 394, 428
1713, 394, 422, 428
1714, 422, 322, 340
1715, 391, 415, 340
1716, 216, 340, 210
1717, 186, 150, 216
1718, 186, 108, 150
1719, 108, 12, 150
1720, 12, 18, 90
1721, 115, 159, 90
1722, 115, 222, 229
1723, 229, 295, 313
1724, 343, 331, 295
1725, 343, 421, 331
1726, 421, 391, 331
1727, 340, 292, 210
1728, 292, 322, 217
1729, 963, 889, 895
1730, 895, 902, 924
1731, 924, 966, 993
1732, 966, 1100, 993
1733, 1020, 1100, 1093
1734, 1020, 1093, 959
1735, 959, 888, 882
1736, 882, 918, 1002
1737, 918, 956, 1002
1738, 956, 1081, 1087
1739, 1087, 1094, 1020
1740, 1020, 963, 993
1741, 1087, 1197, 1094
1742, 1225, 1298, 1197
1743, 1304, 1225, 1203
1744, 1207, 1304, 1203
1745, 1129, 1207, 1203
1746, 1129, 1203, 1100
1747, 1100, 1200, 1093
1748, 1200, 1138, 1126
1749, 1126, 1156, 1086
1750, 1086, 975, 959
1751, 959, 921, 888
1752, 921, 894, 888
1753, 894, 990, 966
1754, 1023, 1106, 966
1755, 1099, 1105, 1023
1756, 1099, 1206, 1105
1757, 1228, 1309, 1206
1758, 1303, 1310, 1228
1759, 1200, 1303, 1138
1760, 1200, 1225, 1297
1761, 1225, 1291, 1297
1762, 1291, 1147, 1193
1763, 1222, 1284, 1193
1764, 1086, 1193, 1080
1765, 1017, 975, 1086
1766, 1017, 955, 975
1767, 955, 881, 975
1768, 881, 887, 921
1769, 962, 990, 921
1770, 962, 1092, 1099
1771, 1099, 1126, 1138
1772, 1196, 1156, 1126
1773, 1196, 1290, 1156
1774, 1290, 1222, 1156
1775, 1193, 1123, 1080
1776, 1123, 1147, 1087
1777, 949, 863, 869
1778, 869, 876, 918
1779, 918, 952, 987
1780, 952, 1074, 987
1781, 1014, 1074, 1067
1782, 1014, 1067, 945
1783, 945, 862, 856
1784, 856, 912, 999
1785, 912, 942, 999
1786, 942, 1055, 1061
1787, 1061, 1068, 1014
1788, 1014, 949, 987
1789, 1061, 1180, 1068
1790, 1219, 1272, 1180
1791, 1278, 1219, 1186
1792, 1190, 1278, 1186
1793, 1123, 1190, 1186
1794, 1123, 1186, 1074
1795, 1074, 1183, 1067
1796, 1183, 1135, 1120
1797, 1120, 1153, 1060
1798, 1060, 972, 945
1799, 945, 915, 862
1800, 915, 868, 862
1801, 868, 984, 952
1802, 1017, 1080, 952
1803, 1073, 1079, 1017
1804, 1073, 1189, 1079
1805, 1222, 1283, 1189
1806, 1277, 1284, 1222
1807, 1183, 1277, 1135
1808, 1183, 1219, 1271
1809, 1219, 1265, 1271
1810, 1265, 1144, 1176
1811, 1216, 1258, 1176
1812, 1060, 1176, 1054
1813, 1011, 972, 1060
1814, 1011, 941, 972
1815, 941, 855, 972
1816, 855, 861, 915
1817, 948, 984, 915
1818, 948, 1066, 1073
1819, 1073, 1120, 1135
1820, 1179, 1153, 1120
1821, 1179, 1264, 1153
1822, 1264, 1216, 1153
1823, 1176, 1117, 1054
1824, 1117, 1144, 1061
1825, 935, 837, 843
1826, 843, 850, 912
1827, 912, 938, 981
1828, 938, 1048, 981
1829, 1008, 1048, 1041
1830, 1008, 1041, 931
1831, 931, 836, 830
1832, 830, 906, 996
1833, 906, 928, 996
1834, 928, 1029, 1035
1835, 1035, 1042, 1008
1836, 1008, 935, 981
1837, 1035, 1163, 1042
1838, 1213, 1246, 1163
1839, 1252, 1213, 1169
1840, 1173, 1252, 1169
1841, 1117, 1173, 1169
1842, 1117, 1169, 1048
1843, 1048, 1166, 1041
1844, 1166, 1132, 1114
1845, 1114, 1150, 1034
1846, 1034, 969, 931
1847, 931, 909, 836
1848, 909, 842, 836
1849, 842, 978, 938
1850, 1011, 1054, 938
1851, 1047, 1053, 1011
1852, 1047, 1172, 1053
1853, 1216, 1257, 1172
1854, 1251, 1258, 1216
1855, 1166, 1251, 1132
1856, 1166, 1213, 1245
1857, 1213, 1239, 1245
1858, 1239, 1141, 1159
1859, 1210, 1233, 1159
1860, 1034, 1159, 1028
1861, 1005, 969, 1034
1862, 1005, 927, 969
1863, 927, 829, 969
1864, 829, 835, 909
1865, 934, 978, 909
1866, 934, 1040, 1047
1867, 1047, 1114, 1132
1868, 1162, 1150, 1114
1869, 1162, 1238, 1150
1870, 1238, 1210, 1150
1871, 1159, 1111, 1028
1872, 1111, 1141, 1035
1873, 553, 479, 485
1874, 485, 492, 514
1875, 514, 556, 583
1876, 556, 690, 583
1877, 610, 690, 683
1878, 610, 683, 549
1879, 549, 478, 472
1880, 472, 508, 592
1881, 508, 546, 592
1882, 546, 671, 677
1883, 677, 684, 610
1884, 610, 553, 583
1885, 677, 787, 684
1886, 815, 889, 787
1887, 895, 815, 793
1888, 797, 895, 793
1889, 719, 797, 793
1890, 719, 793, 690
1891, 690, 790, 683
1892, 790, 728, 716
1893, 716, 746, 676
1894, 676, 565, 549
1895, 549, 511, 478
1896, 511, 484, 478
1897, 484, 580, 556
1898, 613, 696, 556
1899, 689, 695, 613
1900, 689, 796, 695
1901, 818, 900, 796
1902, 894, 901, 818
1903, 790, 894, 728
1904, 790, 815, 888
1905, 815, 882, 888
1906, 882, 737, 783
1907, 812, 875, 783
1908, 676, 783, 670
1909, 607, 565, 676
1910, 607, 545, 565
1911, 545, 471, 565
1912, 471, 477, 511
1913, 552, 580, 511
1914, 552, 682, 689
1915, 689, 716, 728
1916, 786, 746, 716
1917, 786, 881, 746
1918, 881, 812, 746
1919, 783, 713, 670
1920, 713, 737, 677
1921, 539, 453, 459
1922, 459, 466, 508
1923, 508, 542, 577
1924, 542, 664, 577
1925, 604, 664, 657
1926, 604, 657, 535
1927, 535, 452, 446
1928, 446, 502, 589
1929, 502, 532, 589
1930, 532, 645, 651
1931, 651, 658, 604
1932, 604, 539, 577
1933, 651, 770, 658
1934, 809, 863, 770
1935, 869, 809, 776
1936, 780, 869, 776
1937, 713, 780, 776
1938, 713, 776, 664
1939, 664, 773, 657
1940, 773, 725, 710
1941, 710, 743, 650
1942, 650, 562, 535
1943, 535, 505, 452
1944, 505, 458, 452
1945, 458, 574, 542
1946, 607, 670, 542
1947, 663, 669, 607
1948, 663, 779, 669
1949, 812, 874, 779
1950, 868, 875, 812
1951, 773, 868, 725
1952, 773, 809, 862
1953, 809, 856, 862
1954, 856, 734, 766
1955, 806, 849, 766
1956, 650, 766, 644
1957, 601, 562, 650
1958, 601, 531, 562
1959, 531, 445, 562
1960, 445, 451, 505
1961, 538, 574, 505
1962, 538, 656, 663
1963, 663, 710, 725
1964, 769, 743, 710
1965, 769, 855, 743
1966, 855, 806, 743
1967, 766, 707, 644
1968, 707, 734, 651
1969, 525, 427, 433
1970, 433, 440, 502
1971, 502, 528, 571
1972, 528, 638, 571
1973, 598, 638, 631
1974, 598, 631, 521
1975, 521, 426, 420
1976, 420, 496, 586
1977, 496, 518, 586
1978, 518, 619, 625
1979, 625, 632, 598
1980, 598, 525, 571
1981, 625, 753, 632
1982, 803, 837, 753
1983, 843, 803, 759
1984, 763, 843, 759
1985, 707, 763, 759
1986, 707, 759, 638
1987, 638, 756, 631
1988, 756, 722, 704
1989, 704, 740, 624
1990, 624, 559, 521
1991, 521, 499, 426
1992, 499, 432, 426
1993, 432, 568, 528
1994, 601, 644, 528
1995, 637, 643, 601
1996, 637, 762, 643
1997, 806, 848, 762
1998, 842, 849, 806
1999, 756, 842, 722
2000, 756, 803, 836
2001, 803, 830, 836
2002, 830, 731, 749
2003, 800, 823, 749
2004, 624, 749, 618
2005, 595, 559, 624
2006, 595, 517, 559
2007, 517, 419, 559
2008, 419, 425, 499
2009, 524, 568, 499
2010, 524, 630, 637
2011, 637, 704, 722
2012, 752, 740, 704
2013, 752, 829, 740
2014, 829, 800, 740
2015, 749, 701, 618
2016, 701, 731, 625
2017, 143, 70, 76
2018, 76, 82, 104
2019, 104, 146, 173
2020, 146, 280, 173
2021, 200, 280, 273
2022, 200, 273, 139
2023, 139, 69, 63
2024, 63, 98, 182
2025, 98, 136, 182
2026, 136, 261, 267
2027, 267, 274, 200
2028, 200, 143, 173
2029, 267, 377, 274
2030, 405, 479, 377
2031, 485, 405, 383
2032, 387, 485, 383
2033, 309, 387, 383
2034, 309, 383, 280
2035, 280, 380, 273
2036, 380, 318, 306
2037, 306, 336, 266
2038, 266, 155, 139
2039, 139, 101, 69
2040, 101, 75, 69
2041, 75, 170, 146
2042, 203, 286, 146
2043, 279, 285, 203
2044, 279, 386, 285
2045, 408, 490, 386
2046, 484, 491, 408
2047, 380, 484, 318
2048, 380, 405, 478
2049, 405, 472, 478
2050, 472, 327, 373
2051, 402, 465, 373
2052, 266, 373, 260
2053, 197, 155, 266
2054, 197, 135, 155
2055, 135, 62, 155
2056, 62, 68, 101
2057, 142, 170, 101
2058, 142, 272, 279
2059, 279, 306, 318
2060, 376, 336, 306
2061, 376, 471, 336
2062, 471, 402, 336
2063, 373, 303, 260
2064, 303, 327, 267
2065, 129, 44, 50
2066, 50, 57, 98
2067, 98, 132, 167
2068, 132, 254, 167
2069, 194, 254, 247
2070, 194, 247, 125
2071, 125, 43, 37
2072, 37, 92, 179
2073, 92, 122, 179
2074, 122, 235, 241
2075, 241, 248, 194
2076, 194, 129, 167
2077, 241, 360, 248
2078, 399, 453, 360
2079, 459, 399, 366
2080, 370, 459, 366
2081, 303, 370, 366
2082, 303, 366, 254
2083, 254, 363, 247
2084, 363, 315, 300
2085, 300, 333, 240
2086, 240, 152, 125
2087, 125, 95, 43
2088, 95, 49, 43
2089, 49, 164, 132
2090, 197, 260, 132
2091, 253, 259, 197
2092, 253, 369, 259
2093, 402, 464, 369
2094, 458, 465, 402
2095, 363, 458, 315
2096, 363, 399, 452
2097, 399, 446, 452
2098, 446, 324, 356
2099, 396, 439, 356
2100, 240, 356, 234
2101, 191, 152, 240
2102, 191, 121, 152
2103, 121, 36, 152
2104, 36, 42, 95
2105, 128, 164, 95
2106, 128, 246, 253
2107, 253, 300, 315
2108, 359, 333, 300
2109, 359, 445, 333
2110, 445, 396, 333
2111, 356, 297, 234
2112, 297, 324, 241
2113, 115, 18, 24
2114, 24, 31, 92
2115, 92, 118, 161
2116, 118, 228, 161
2117, 188, 228, 221
2118, 188, 221, 111
2119, 111, 17, 11
2120, 11, 86, 176
2121, 86, 108, 176
2122, 108, 209, 215
2123, 215, 222, 188
2124, 188, 115, 161
2125, 215, 343, 222
2126, 393, 427, 343
2127, 433, 393, 349
2128, 353, 433, 349
2129, 297, 353, 349
2130, 297, 349, 228
2131, 228, 346, 221
2132, 346, 312, 294
2133, 294, 330, 214
2134, 214, 149, 111
2135, 111, 89, 17
2136, 89, 23, 17
2137, 23, 158, 118
2138, 191, 234, 118
2139, 227, 233, 191
2140, 227, 352, 233
2141, 396, 438, 352
2142, 432, 439, 396
2143, 346, 432, 312
2144, 346, 393, 426
2145, 393, 420, 426
2146, 420, 321, 339
2147, 390, 413, 339
2148, 214, 339, 208
2149, 185, 149, 214
2150, 185, 107, 149
2151, 107, 10, 149
2152, 10, 16, 89
2153, 114, 158, 89
2154, 114, 220, 227
2155, 227, 294, 312
2156, 342, 330, 294
2157, 342, 419, 330
2158, 419, 390, 330
2159, 339, 291, 208
2160, 291, 321, 215
2161, 962, 887, 893
2162, 893, 900, 923
2163, 923, 965, 992
2164, 965, 1098, 992
2165, 1019, 1098, 1091
2166, 1019, 1091, 958
2167, 958, 886, 880
2168, 880, 917, 1001
2169, 917, 955, 1001
2170, 955, 1079, 1085
2171, 1085, 1092, 1019
2172, 1019, 962, 992
2173, 1085, 1196, 1092
2174, 1224, 1296, 1196
2175, 1302, 1224, 1202
2176, 1206, 1302, 1202
2177, 1128, 1206, 1202
2178, 1128, 1202, 1098
2179, 1098, 1199, 1091
2180, 1199, 1137, 1125
2181, 1125, 1155, 1084
2182, 1084, 974, 958
2183, 958, 920, 886
2184, 920, 892, 886
2185, 892, 989, 965
2186, 1022, 1104, 965
2187, 1097, 1103, 1022
2188, 1097, 1205, 1103
2189, 1227, 1307, 1205
2190, 1301, 1308, 1227
2191, 1199, 1301, 1137
2192, 1199, 1224, 1295
2193, 1224, 1289, 1295
2194, 1289, 1146, 1192
2195, 1221, 1282, 1192
2196, 1084, 1192, 1078
2197, 1016, 974, 1084
2198, 1016, 954, 974
2199, 954, 879, 974
2200, 879, 885, 920
2201, 961, 989, 920
2202, 961, 1090, 1097
2203, 1097, 1125, 1137
2204, 1195, 1155, 1125
2205, 1195, 1288, 1155
2206, 1288, 1221, 1155
2207, 1192, 1122, 1078
2208, 1122, 1146, 1085
2209, 948, 861, 867
2210, 867, 874, 917
2211, 917, 951, 986
2212, 951, 1072, 986
2213, 1013, 1072, 1065
2214, 1013, 1065, 944
2215, 944, 860, 854
2216, 854, 911, 998
2217, 911, 941, 998
2218, 941, 1053, 1059
2219, 1059, 1066, 1013
2220, 1013, 948, 986
2221, 1059, 1179, 1066
2222, 1218, 1270, 1179
2223, 1276, 1218, 1185
2224, 1189, 1276, 1185
2225, 1122, 1189, 1185
2226, 1122, 1185, 1072
2227, 1072, 1182, 1065
2228, 1182, 1134, 1119
2229, 1119, 1152, 1058
2230, 1058, 971, 944
2231, 944, 914, 860
2232, 914, 866, 860
2233, 866, 983, 951
2234, 1016, 1078, 951
2235, 1071, 1077, 1016
2236, 1071, 1188, 1077
2237, 1221, 1281, 1188
2238, 1275, 1282, 1221
2239, 1182, 1275, 1134
2240, 1182, 1218, 1269
2241, 1218, 1263, 1269
2242, 1263, 1143, 1175
2243, 1215, 1256, 1175
2244, 1058, 1175, 1052
2245, 1010, 971, 1058
2246, 1010, 940, 971
2247, 940, 853, 971
2248, 853, 859, 914
2249, 947, 983, 914
2250, 947, 1064, 1071
2251, 1071, 1119, 1134
2252, 1178, 1152, 1119
2253, 1178, 1262, 1152
2254, 1262, 1215, 1152
2255, 1175, 1116, 1052
2256, 1116, 1143, 1059
2257, 934, 835, 841
2258, 841, 848, 911
2259, 911, 937, 980
2260, 937, 1046, 980
2261, 1007, 1046, 1039
2262, 1007, 1039, 930
2263, 930, 834, 828
2264, 828, 905, 995
2265, 905, 927, 995
2266, 927, 1027, 1033
2267, 1033, 1040, 1007
2268, 1007, 934, 980
2269, 1033, 1162, 1040
2270, 1212, 1244, 1162
2271, 1250, 1212, 1168
2272, 1172, 1250, 1168
2273, 1116, 1172, 1168
2274, 1116, 1168, 1046
2275, 1046, 1165, 1039
2276, 1165, 1131, 1113
2277, 1113, 1149, 1032
2278, 1032, 968, 930
2279, 930, 908, 834
2280, 908, 840, 834
2281, 840, 977, 937
2282, 1010, 1052, 937
2283, 1045, 1051, 1010
2284, 1045, 1171, 1051
2285, 1215, 1255, 1171
2286, 1249, 1256, 1215
2287, 1165, 1249, 1131
2288, 1165, 1212, 1243
2289, 1212, 1237, 1243
2290, 1237, 1140, 1158
2291, 1209, 1231, 1158
2292, 1032, 1158, 1026
2293, 1004, 968, 1032
2294, 1004, 926, 968
2295, 926, 827, 968
2296, 827, 833, 908
2297, 933, 977, 908
2298, 933, 1038, 1045
2299, 1045, 1113, 1131
2300, 1161, 1149, 1113
2301, 1161, 1236, 1149
2302, 1236, 1209, 1149
2303, 1158, 1110, 1026
2304, 1110, 1140, 1033
2305, 552, 477, 483
2306, 483, 490, 513
2307, 513, 555, 582
2308, 555, 688, 582
2309, 609, 688, 681
2310, 609, 681, 548
2311, 548, 476, 470
2312, 470, 507, 591
2313, 507, 545, 591
2314, 545, 669, 675
2315, 675, 682, 609
2316, 609, 552, 582
2317, 675, 786, 682
2318, 814, 887, 786
2319, 893, 814, 792
2320, 796, 893, 792
2321, 718, 796, 792
2322, 718, 792, 688
2323, 688, 789, 681
2324, 789, 727, 715
2325, 715, 745, 674
2326, 674, 564, 548
2327, 548, 510, 476
2328, 510, 482, 476
2329, 482, 579, 555
2330, 612, 694, 555
2331, 687, 693, 612
2332, 687, 795, 693
2333, 817, 898, 795
2334, 892, 899, 817
2335, 789, 892, 727
2336, 789, 814, 886
2337, 814, 880, 886
2338, 880, 736, 782
2339, 811, 873, 782
2340, 674, 782, 668
2341, 606, 564, 674
2342, 606, 544, 564
2343, 544, 469, 564
2344, 469, 475, 510
2345, 551, 579, 510
2346, 551, 680, 687
2347, 687, 715, 727
2348, 785, 745, 715
2349, 785, 879, 745
2350, 879, 811, 745
2351, 782, 712, 668
2352, 712, 736, 675
2353, 538, 451, 457
2354, 457, 464, 507
2355, 507, 541, 576
2356, 541, 662, 576
2357, 603, 662, 655
2358, 603, 655, 534
2359, 534, 450, 444
2360, 444, 501, 588
2361, 501, 531, 588
2362, 531, 643, 649
2363, 649, 656, 603
2364, 603, 538, 576
2365, 649, 769, 656
2366, 808, 861, 769
2367, 867, 808, 775
2368, 779, 867, 775
2369, 712, 779, 775
2370, 712, 775, 662
2371, 662, 772, 655
2372, 772, 724, 709
2373, 709, 742, 648
2374, 648, 561, 534
2375, 534, 504, 450
2376, 504, 456, 450
2377, 456, 573, 541
2378, 606, 668, 541
2379, 661, 667, 606
2380, 661, 778, 667
2381, 811, 872, 778
2382, 866, 873, 811
2383, 772, 866, 724
2384, 772, 808, 860
2385, 808, 854, 860
2386, 854, 733, 765
2387, 805, 847, 765
2388, 648, 765, 642
2389, 600, 561, 648
2390, 600, 530, 561
2391, 530, 443, 561
2392, 443, 449, 504
2393, 537, 573, 504
2394, 537, 654, 661
2395, 661, 709, 724
2396, 768, 742, 709
2397, 768, 853, 742
2398, 853, 805, 742
2399, 765, 706, 642
2400, 706, 733, 649
2401, 524, 425, 431
2402, 431, 438, 501
2403, 501, 527, 570
2404, 527, 636, 570
2405, 597, 636, 629
2406, 597, 629, 520
2407, 520, 424, 418
2408, 418, 495, 585
2409, 495, 517, 585
2410, 517, 617, 623
2411, 623, 630, 597
2412, 597, 524, 570
2413, 623, 752, 630
2414, 802, 835, 752
2415, 841, 802, 758
2416, 762, 841, 758
2417, 706, 762, 758
2418, 706, 758, 636
2419, 636, 755, 629
2420, 755, 721, 703
2421, 703, 739, 622
2422, 622, 558, 520
2423, 520, 498, 424
2424, 498, 430, 424
2425, 430, 567, 527
2426, 600, 642, 527
2427, 635, 641, 600
2428, 635, 761, 641
2429, 805, 846, 761
2430, 840, 847, 805
2431, 755, 840, 721
2432, 755, 802, 834
2433, 802, 828, 834
2434, 828, 730, 748
2435, 799, 821, 748
2436, 622, 748, 616
2437, 594, 558, 622
2438, 594, 516, 558
2439, 516, 417, 558
2440, 417, 423, 498
2441, 523, 567, 498
2442, 523, 628, 635
2443, 635, 703, 721
2444, 751, 739, 703
2445, 751, 827, 739
2446, 827, 799, 739
2447, 748, 700, 616
2448, 700, 730, 623
2449, 142, 68, 74
2450, 74, 80, 103
2451, 103, 145, 172
2452, 145, 278, 172
2453, 199, 278, 271
2454, 199, 271, 138
2455, 138, 67, 61
2456, 61, 97, 181
2457, 97, 135, 181
2458, 135, 259, 265
2459, 265, 272, 199
2460, 199, 142, 172
2461, 265, 376, 272
2462, 404, 477, 376
2463, 483, 404, 382
2464, 386, 483, 382
2465, 308, 386, 382
2466, 308, 382, 278
2467, 278, 379, 271
2468, 379, 317, 305
2469, 305, 335, 264
2470, 264, 154, 138
2471, 138, 100, 67
2472, 100, 73, 67
2473, 73, 169, 145
2474, 202, 284, 145
2475, 277, 283, 202
2476, 277, 385, 283
2477, 407, 488, 385
2478, 482, 489, 407
2479, 379, 482, 317
2480, 379, 404, 476
2481, 404, 470, 476
2482, 470, 326, 372
2483, 401, 463, 372
2484, 264, 372, 258
2485, 196, 154, 264
2486, 196, 134, 154
2487, 134, 60, 154
2488, 60, 66, 100
2489, 141, 169, 100
2490, 141, 270, 277
2491, 277, 305, 317
2492, 375, 335, 305
2493, 375, 469, 335
2494, 469, 401, 335
2495, 372, 302, 258
2496, 302, 326, 265
2497, 128, 42, 48
2498, 48, 55, 97
2499, 97, 131, 166
2500, 131, 252, 166
2501, 193, 252, 245
2502, 193, 245, 124
2503, 124, 41, 35
2504, 35, 91, 178
2505, 91, 121, 178
2506, 121, 233, 239
2507, 239, 246, 193
2508, 193, 128, 166
2509, 239, 359, 246
2510, 398, 451, 359
2511, 457, 398, 365
2512, 369, 457, 365
2513, 302, 369, 365
2514, 302, 365, 252
2515, 252, 362, 245
2516, 362, 314, 299
2517, 299, 332, 238
2518, 238, 151, 124
2519, 124, 94, 41
2520, 94, 47, 41
2521, 47, 163, 131
2522, 196, 258, 131
2523, 251, 257, 196
2524, 251, 368, 257
2525, 401, 462, 368
2526, 456, 463, 401
2527, 362, 456, 314
2528, 362, 398, 450
2529, 398, 444, 450
2530, 444, 323, 355
2531, 395, 437, 355
2532, 238, 355, 232
2533, 190, 151, 238
2534, 190, 120, 151
2535, 120, 34, 151
2536, 34, 40, 94
2537, 127, 163, 94
2538, 127, 244, 251
2539, 251, 299, 314
2540, 358, 332, 299
2541, 358, 443, 332
2542, 443, 395, 332
2543, 355, 296, 232
2544, 296, 323, 239
2545, 114, 16, 22
2546, 22, 29, 91
2547, 91, 117, 160
2548, 117, 226, 160
2549, 187, 226, 219
2550, 187, 219, 110
2551, 110, 15, 9
2552, 9, 85, 175
2553, 85, 107, 175
2554, 107, 207, 213
2555, 213, 220, 187
2556, 187, 114, 160
2557, 213, 342, 220
2558, 392, 425, 342
2559, 431, 392, 348
2560, 352, 431, 348
2561, 296, 352, 348
2562, 296, 348, 226
2563, 226, 345, 219
2564, 345, 311, 293
2565, 293, 329, 212
2566, 212, 148, 110
2567, 110, 88, 15
2568, 88, 21, 15
2569, 21, 157, 117
2570, 190, 232, 117
2571, 225, 231, 190
2572, 225, 351, 231
2573, 395, 436, 351
2574, 430, 437, 395
2575, 345, 430, 311
2576, 345, 392, 424
2577, 392, 418, 424
2578, 418, 320, 338
2579, 389, 411, 338
2580, 212, 338, 206
2581, 184, 148, 212
2582, 184, 106, 148
2583, 106, 8, 148
2584, 8, 14, 88
2585, 113, 157, 88
2586, 113, 218, 225
2587, 225, 293, 311
2588, 341, 329, 293
2589, 341, 417, 329
2590, 417, 389, 329
2591, 338, 290, 206
2592, 290, 320, 213
*SHELL SECTION,MATERIAL=Ms3example,ELSET=Es3example
0.5
