**INP GENERATOR - CRYSTALLON 
**FILENAME = s4example
*NODE,NSET=Ns4example
 1, 10, 10, 20
 2, 10, 10, 16.667
 3, 10, 10, 13.333
 4, 10, 10, 10
 5, 10, 10, 6.667
 6, 10, 10, 3.333
 7, 10, 10, 0
 8, 10, 8.333, 19.167
 9, 10, 8.333, 15.833
 10, 10, 8.333, 12.5
 11, 10, 8.333, 9.167
 12, 10, 8.333, 5.833
 13, 10, 8.333, 2.5
 14, 10, 6.667, 20
 15, 10, 6.667, 16.667
 16, 10, 6.667, 13.333
 17, 10, 6.667, 10
 18, 10, 6.667, 6.667
 19, 10, 6.667, 3.333
 20, 10, 6.667, 0
 21, 10, 5, 17.5
 22, 10, 5, 14.167
 23, 10, 5, 10.833
 24, 10, 5, 7.5
 25, 10, 5, 4.167
 26, 10, 5, 0.833
 27, 10, 3.333, 20
 28, 10, 3.333, 16.667
 29, 10, 3.333, 13.333
 30, 10, 3.333, 10
 31, 10, 3.333, 6.667
 32, 10, 3.333, 3.333
 33, 10, 3.333, 0
 34, 10, 1.667, 19.167
 35, 10, 1.667, 15.833
 36, 10, 1.667, 12.5
 37, 10, 1.667, 9.167
 38, 10, 1.667, 5.833
 39, 10, 1.667, 2.5
 40, 10, 0, 20
 41, 10, 0, 16.667
 42, 10, 0, 13.333
 43, 10, 0, 10
 44, 10, 0, 6.667
 45, 10, 0, 3.333
 46, 10, 0, 0
 47, 10, -1.667, 17.5
 48, 10, -1.667, 14.167
 49, 10, -1.667, 10.833
 50, 10, -1.667, 7.5
 51, 10, -1.667, 4.167
 52, 10, -1.667, 0.833
 53, 10, -3.333, 20
 54, 10, -3.333, 16.667
 55, 10, -3.333, 13.333
 56, 10, -3.333, 10
 57, 10, -3.333, 6.667
 58, 10, -3.333, 3.333
 59, 10, -3.333, 0
 60, 10, -5, 19.167
 61, 10, -5, 15.833
 62, 10, -5, 12.5
 63, 10, -5, 9.167
 64, 10, -5, 5.833
 65, 10, -5, 2.5
 66, 10, -6.667, 20
 67, 10, -6.667, 16.667
 68, 10, -6.667, 13.333
 69, 10, -6.667, 10
 70, 10, -6.667, 6.667
 71, 10, -6.667, 3.333
 72, 10, -6.667, 0
 73, 10, -8.333, 17.5
 74, 10, -8.333, 14.167
 75, 10, -8.333, 10.833
 76, 10, -8.333, 7.5
 77, 10, -8.333, 4.167
 78, 10, -8.333, 0.833
 79, 10, -10, 16.667
 80, 10, -10, 13.333
 81, 10, -10, 10
 82, 10, -10, 6.667
 83, 10, -10, 3.333
 84, 10, -10, 0
 85, 9.167, 10, 15
 86, 9.167, 10, 8.333
 87, 9.167, 10, 1.667
 88, 9.167, 6.667, 18.333
 89, 9.167, 6.667, 11.667
 90, 9.167, 6.667, 5
 91, 9.167, 3.333, 15
 92, 9.167, 3.333, 8.333
 93, 9.167, 3.333, 1.667
 94, 9.167, 0, 18.333
 95, 9.167, 0, 11.667
 96, 9.167, 0, 5
 97, 9.167, -3.333, 15
 98, 9.167, -3.333, 8.333
 99, 9.167, -3.333, 1.667
 100, 9.167, -6.667, 18.333
 101, 9.167, -6.667, 11.667
 102, 9.167, -6.667, 5
 103, 9.167, -10, 15
 104, 9.167, -10, 8.333
 105, 9.167, -10, 1.667
 106, 8.333, 9.167, 20
 107, 8.333, 9.167, 13.333
 108, 8.333, 9.167, 6.667
 109, 8.333, 9.167, 0
 110, 8.333, 7.5, 16.667
 111, 8.333, 7.5, 10
 112, 8.333, 7.5, 3.333
 113, 8.333, 5.833, 20
 114, 8.333, 5.833, 13.333
 115, 8.333, 5.833, 6.667
 116, 8.333, 5.833, 0
 117, 8.333, 4.167, 16.667
 118, 8.333, 4.167, 10
 119, 8.333, 4.167, 3.333
 120, 8.333, 2.5, 20
 121, 8.333, 2.5, 13.333
 122, 8.333, 2.5, 6.667
 123, 8.333, 2.5, 0
 124, 8.333, 0.833, 16.667
 125, 8.333, 0.833, 10
 126, 8.333, 0.833, 3.333
 127, 8.333, -0.833, 20
 128, 8.333, -0.833, 13.333
 129, 8.333, -0.833, 6.667
 130, 8.333, -0.833, 0
 131, 8.333, -2.5, 16.667
 132, 8.333, -2.5, 10
 133, 8.333, -2.5, 3.333
 134, 8.333, -4.167, 20
 135, 8.333, -4.167, 13.333
 136, 8.333, -4.167, 6.667
 137, 8.333, -4.167, 0
 138, 8.333, -5.833, 16.667
 139, 8.333, -5.833, 10
 140, 8.333, -5.833, 3.333
 141, 8.333, -7.5, 20
 142, 8.333, -7.5, 13.333
 143, 8.333, -7.5, 6.667
 144, 8.333, -7.5, 0
 145, 8.333, -9.167, 16.667
 146, 8.333, -9.167, 10
 147, 8.333, -9.167, 3.333
 148, 8.333, 8.333, 18.333
 149, 8.333, 8.333, 11.667
 150, 8.333, 8.333, 5
 151, 8.333, 1.667, 18.333
 152, 8.333, 1.667, 11.667
 153, 8.333, 1.667, 5
 154, 8.333, -5, 18.333
 155, 8.333, -5, 11.667
 156, 8.333, -5, 5
 157, 8.333, 5, 18.333
 158, 8.333, 5, 11.667
 159, 8.333, 5, 5
 160, 8.333, 5, 15
 161, 8.333, 5, 8.333
 162, 8.333, 5, 1.667
 163, 8.333, -1.667, 18.333
 164, 8.333, -1.667, 11.667
 165, 8.333, -1.667, 5
 166, 8.333, -1.667, 15
 167, 8.333, -1.667, 8.333
 168, 8.333, -1.667, 1.667
 169, 8.333, -8.333, 18.333
 170, 8.333, -8.333, 11.667
 171, 8.333, -8.333, 5
 172, 8.333, -8.333, 15
 173, 8.333, -8.333, 8.333
 174, 8.333, -8.333, 1.667
 175, 8.333, 8.333, 15
 176, 8.333, 8.333, 8.333
 177, 8.333, 8.333, 1.667
 178, 8.333, 1.667, 15
 179, 8.333, 1.667, 8.333
 180, 8.333, 1.667, 1.667
 181, 8.333, -5, 15
 182, 8.333, -5, 8.333
 183, 8.333, -5, 1.667
 184, 7.5, 10, 18.333
 185, 7.5, 10, 11.667
 186, 7.5, 10, 5
 187, 7.5, 6.667, 15
 188, 7.5, 6.667, 8.333
 189, 7.5, 6.667, 1.667
 190, 7.5, 3.333, 18.333
 191, 7.5, 3.333, 11.667
 192, 7.5, 3.333, 5
 193, 7.5, 0, 15
 194, 7.5, 0, 8.333
 195, 7.5, 0, 1.667
 196, 7.5, -3.333, 18.333
 197, 7.5, -3.333, 11.667
 198, 7.5, -3.333, 5
 199, 7.5, -6.667, 15
 200, 7.5, -6.667, 8.333
 201, 7.5, -6.667, 1.667
 202, 7.5, -10, 18.333
 203, 7.5, -10, 11.667
 204, 7.5, -10, 5
 205, 6.667, 10, 20
 206, 6.667, 10, 16.667
 207, 6.667, 10, 13.333
 208, 6.667, 10, 10
 209, 6.667, 10, 6.667
 210, 6.667, 10, 3.333
 211, 6.667, 10, 0
 212, 6.667, 8.333, 17.5
 213, 6.667, 8.333, 14.167
 214, 6.667, 8.333, 10.833
 215, 6.667, 8.333, 7.5
 216, 6.667, 8.333, 4.167
 217, 6.667, 8.333, 0.833
 218, 6.667, 6.667, 20
 219, 6.667, 6.667, 16.667
 220, 6.667, 6.667, 13.333
 221, 6.667, 6.667, 10
 222, 6.667, 6.667, 6.667
 223, 6.667, 6.667, 3.333
 224, 6.667, 6.667, 0
 225, 6.667, 5, 19.167
 226, 6.667, 5, 15.833
 227, 6.667, 5, 12.5
 228, 6.667, 5, 9.167
 229, 6.667, 5, 5.833
 230, 6.667, 5, 2.5
 231, 6.667, 3.333, 20
 232, 6.667, 3.333, 16.667
 233, 6.667, 3.333, 13.333
 234, 6.667, 3.333, 10
 235, 6.667, 3.333, 6.667
 236, 6.667, 3.333, 3.333
 237, 6.667, 3.333, 0
 238, 6.667, 1.667, 17.5
 239, 6.667, 1.667, 14.167
 240, 6.667, 1.667, 10.833
 241, 6.667, 1.667, 7.5
 242, 6.667, 1.667, 4.167
 243, 6.667, 1.667, 0.833
 244, 6.667, 0, 20
 245, 6.667, 0, 16.667
 246, 6.667, 0, 13.333
 247, 6.667, 0, 10
 248, 6.667, 0, 6.667
 249, 6.667, 0, 3.333
 250, 6.667, 0, 0
 251, 6.667, -1.667, 19.167
 252, 6.667, -1.667, 15.833
 253, 6.667, -1.667, 12.5
 254, 6.667, -1.667, 9.167
 255, 6.667, -1.667, 5.833
 256, 6.667, -1.667, 2.5
 257, 6.667, -3.333, 20
 258, 6.667, -3.333, 16.667
 259, 6.667, -3.333, 13.333
 260, 6.667, -3.333, 10
 261, 6.667, -3.333, 6.667
 262, 6.667, -3.333, 3.333
 263, 6.667, -3.333, 0
 264, 6.667, -5, 17.5
 265, 6.667, -5, 14.167
 266, 6.667, -5, 10.833
 267, 6.667, -5, 7.5
 268, 6.667, -5, 4.167
 269, 6.667, -5, 0.833
 270, 6.667, -6.667, 20
 271, 6.667, -6.667, 16.667
 272, 6.667, -6.667, 13.333
 273, 6.667, -6.667, 10
 274, 6.667, -6.667, 6.667
 275, 6.667, -6.667, 3.333
 276, 6.667, -6.667, 0
 277, 6.667, -8.333, 19.167
 278, 6.667, -8.333, 15.833
 279, 6.667, -8.333, 12.5
 280, 6.667, -8.333, 9.167
 281, 6.667, -8.333, 5.833
 282, 6.667, -8.333, 2.5
 283, 6.667, -10, 20
 284, 6.667, -10, 16.667
 285, 6.667, -10, 13.333
 286, 6.667, -10, 10
 287, 6.667, -10, 6.667
 288, 6.667, -10, 3.333
 289, 6.667, -10, 0
 290, 5.833, 10, 15
 291, 5.833, 10, 8.333
 292, 5.833, 10, 1.667
 293, 5.833, 6.667, 18.333
 294, 5.833, 6.667, 11.667
 295, 5.833, 6.667, 5
 296, 5.833, 3.333, 15
 297, 5.833, 3.333, 8.333
 298, 5.833, 3.333, 1.667
 299, 5.833, 0, 18.333
 300, 5.833, 0, 11.667
 301, 5.833, 0, 5
 302, 5.833, -3.333, 15
 303, 5.833, -3.333, 8.333
 304, 5.833, -3.333, 1.667
 305, 5.833, -6.667, 18.333
 306, 5.833, -6.667, 11.667
 307, 5.833, -6.667, 5
 308, 5.833, -10, 15
 309, 5.833, -10, 8.333
 310, 5.833, -10, 1.667
 311, 5, 5, 18.333
 312, 5, 5, 11.667
 313, 5, 5, 5
 314, 5, -1.667, 18.333
 315, 5, -1.667, 11.667
 316, 5, -1.667, 5
 317, 5, -8.333, 18.333
 318, 5, -8.333, 11.667
 319, 5, -8.333, 5
 320, 5, 8.333, 15
 321, 5, 8.333, 8.333
 322, 5, 8.333, 1.667
 323, 5, 1.667, 15
 324, 5, 1.667, 8.333
 325, 5, 1.667, 1.667
 326, 5, -5, 15
 327, 5, -5, 8.333
 328, 5, -5, 1.667
 329, 5, 8.333, 18.333
 330, 5, 8.333, 11.667
 331, 5, 8.333, 5
 332, 5, 1.667, 18.333
 333, 5, 1.667, 11.667
 334, 5, 1.667, 5
 335, 5, -5, 18.333
 336, 5, -5, 11.667
 337, 5, -5, 5
 338, 5, 9.167, 16.667
 339, 5, 9.167, 10
 340, 5, 9.167, 3.333
 341, 5, 7.5, 20
 342, 5, 7.5, 13.333
 343, 5, 7.5, 6.667
 344, 5, 7.5, 0
 345, 5, 5.833, 16.667
 346, 5, 5.833, 10
 347, 5, 5.833, 3.333
 348, 5, 5, 15
 349, 5, 5, 8.333
 350, 5, 5, 1.667
 351, 5, 4.167, 20
 352, 5, 4.167, 13.333
 353, 5, 4.167, 6.667
 354, 5, 4.167, 0
 355, 5, 2.5, 16.667
 356, 5, 2.5, 10
 357, 5, 2.5, 3.333
 358, 5, 0.833, 20
 359, 5, 0.833, 13.333
 360, 5, 0.833, 6.667
 361, 5, 0.833, 0
 362, 5, -0.833, 16.667
 363, 5, -0.833, 10
 364, 5, -0.833, 3.333
 365, 5, -1.667, 15
 366, 5, -1.667, 8.333
 367, 5, -1.667, 1.667
 368, 5, -2.5, 20
 369, 5, -2.5, 13.333
 370, 5, -2.5, 6.667
 371, 5, -2.5, 0
 372, 5, -4.167, 16.667
 373, 5, -4.167, 10
 374, 5, -4.167, 3.333
 375, 5, -5.833, 20
 376, 5, -5.833, 13.333
 377, 5, -5.833, 6.667
 378, 5, -5.833, 0
 379, 5, -7.5, 16.667
 380, 5, -7.5, 10
 381, 5, -7.5, 3.333
 382, 5, -8.333, 15
 383, 5, -8.333, 8.333
 384, 5, -8.333, 1.667
 385, 5, -9.167, 20
 386, 5, -9.167, 13.333
 387, 5, -9.167, 6.667
 388, 5, -9.167, 0
 389, 4.167, 10, 18.333
 390, 4.167, 10, 11.667
 391, 4.167, 10, 5
 392, 4.167, 6.667, 15
 393, 4.167, 6.667, 8.333
 394, 4.167, 6.667, 1.667
 395, 4.167, 3.333, 18.333
 396, 4.167, 3.333, 11.667
 397, 4.167, 3.333, 5
 398, 4.167, 0, 15
 399, 4.167, 0, 8.333
 400, 4.167, 0, 1.667
 401, 4.167, -3.333, 18.333
 402, 4.167, -3.333, 11.667
 403, 4.167, -3.333, 5
 404, 4.167, -6.667, 15
 405, 4.167, -6.667, 8.333
 406, 4.167, -6.667, 1.667
 407, 4.167, -10, 18.333
 408, 4.167, -10, 11.667
 409, 4.167, -10, 5
 410, 3.333, 10, 20
 411, 3.333, 10, 16.667
 412, 3.333, 10, 13.333
 413, 3.333, 10, 10
 414, 3.333, 10, 6.667
 415, 3.333, 10, 3.333
 416, 3.333, 10, 0
 417, 3.333, 8.333, 19.167
 418, 3.333, 8.333, 15.833
 419, 3.333, 8.333, 12.5
 420, 3.333, 8.333, 9.167
 421, 3.333, 8.333, 5.833
 422, 3.333, 8.333, 2.5
 423, 3.333, 6.667, 20
 424, 3.333, 6.667, 16.667
 425, 3.333, 6.667, 13.333
 426, 3.333, 6.667, 10
 427, 3.333, 6.667, 6.667
 428, 3.333, 6.667, 3.333
 429, 3.333, 6.667, 0
 430, 3.333, 5, 17.5
 431, 3.333, 5, 14.167
 432, 3.333, 5, 10.833
 433, 3.333, 5, 7.5
 434, 3.333, 5, 4.167
 435, 3.333, 5, 0.833
 436, 3.333, 3.333, 20
 437, 3.333, 3.333, 16.667
 438, 3.333, 3.333, 13.333
 439, 3.333, 3.333, 10
 440, 3.333, 3.333, 6.667
 441, 3.333, 3.333, 3.333
 442, 3.333, 3.333, 0
 443, 3.333, 1.667, 19.167
 444, 3.333, 1.667, 15.833
 445, 3.333, 1.667, 12.5
 446, 3.333, 1.667, 9.167
 447, 3.333, 1.667, 5.833
 448, 3.333, 1.667, 2.5
 449, 3.333, 0, 20
 450, 3.333, 0, 16.667
 451, 3.333, 0, 13.333
 452, 3.333, 0, 10
 453, 3.333, 0, 6.667
 454, 3.333, 0, 3.333
 455, 3.333, 0, 0
 456, 3.333, -1.667, 17.5
 457, 3.333, -1.667, 14.167
 458, 3.333, -1.667, 10.833
 459, 3.333, -1.667, 7.5
 460, 3.333, -1.667, 4.167
 461, 3.333, -1.667, 0.833
 462, 3.333, -3.333, 20
 463, 3.333, -3.333, 16.667
 464, 3.333, -3.333, 13.333
 465, 3.333, -3.333, 10
 466, 3.333, -3.333, 6.667
 467, 3.333, -3.333, 3.333
 468, 3.333, -3.333, 0
 469, 3.333, -5, 19.167
 470, 3.333, -5, 15.833
 471, 3.333, -5, 12.5
 472, 3.333, -5, 9.167
 473, 3.333, -5, 5.833
 474, 3.333, -5, 2.5
 475, 3.333, -6.667, 20
 476, 3.333, -6.667, 16.667
 477, 3.333, -6.667, 13.333
 478, 3.333, -6.667, 10
 479, 3.333, -6.667, 6.667
 480, 3.333, -6.667, 3.333
 481, 3.333, -6.667, 0
 482, 3.333, -8.333, 17.5
 483, 3.333, -8.333, 14.167
 484, 3.333, -8.333, 10.833
 485, 3.333, -8.333, 7.5
 486, 3.333, -8.333, 4.167
 487, 3.333, -8.333, 0.833
 488, 3.333, -10, 20
 489, 3.333, -10, 16.667
 490, 3.333, -10, 13.333
 491, 3.333, -10, 10
 492, 3.333, -10, 6.667
 493, 3.333, -10, 3.333
 494, 3.333, -10, 0
 495, 2.5, 10, 15
 496, 2.5, 10, 8.333
 497, 2.5, 10, 1.667
 498, 2.5, 6.667, 18.333
 499, 2.5, 6.667, 11.667
 500, 2.5, 6.667, 5
 501, 2.5, 3.333, 15
 502, 2.5, 3.333, 8.333
 503, 2.5, 3.333, 1.667
 504, 2.5, 0, 18.333
 505, 2.5, 0, 11.667
 506, 2.5, 0, 5
 507, 2.5, -3.333, 15
 508, 2.5, -3.333, 8.333
 509, 2.5, -3.333, 1.667
 510, 2.5, -6.667, 18.333
 511, 2.5, -6.667, 11.667
 512, 2.5, -6.667, 5
 513, 2.5, -10, 15
 514, 2.5, -10, 8.333
 515, 2.5, -10, 1.667
 516, 1.667, 9.167, 20
 517, 1.667, 9.167, 13.333
 518, 1.667, 9.167, 6.667
 519, 1.667, 9.167, 0
 520, 1.667, 7.5, 16.667
 521, 1.667, 7.5, 10
 522, 1.667, 7.5, 3.333
 523, 1.667, 5.833, 20
 524, 1.667, 5.833, 13.333
 525, 1.667, 5.833, 6.667
 526, 1.667, 5.833, 0
 527, 1.667, 4.167, 16.667
 528, 1.667, 4.167, 10
 529, 1.667, 4.167, 3.333
 530, 1.667, 2.5, 20
 531, 1.667, 2.5, 13.333
 532, 1.667, 2.5, 6.667
 533, 1.667, 2.5, 0
 534, 1.667, 0.833, 16.667
 535, 1.667, 0.833, 10
 536, 1.667, 0.833, 3.333
 537, 1.667, -0.833, 20
 538, 1.667, -0.833, 13.333
 539, 1.667, -0.833, 6.667
 540, 1.667, -0.833, 0
 541, 1.667, -2.5, 16.667
 542, 1.667, -2.5, 10
 543, 1.667, -2.5, 3.333
 544, 1.667, -4.167, 20
 545, 1.667, -4.167, 13.333
 546, 1.667, -4.167, 6.667
 547, 1.667, -4.167, 0
 548, 1.667, -5.833, 16.667
 549, 1.667, -5.833, 10
 550, 1.667, -5.833, 3.333
 551, 1.667, -7.5, 20
 552, 1.667, -7.5, 13.333
 553, 1.667, -7.5, 6.667
 554, 1.667, -7.5, 0
 555, 1.667, -9.167, 16.667
 556, 1.667, -9.167, 10
 557, 1.667, -9.167, 3.333
 558, 1.667, 8.333, 18.333
 559, 1.667, 8.333, 11.667
 560, 1.667, 8.333, 5
 561, 1.667, 1.667, 18.333
 562, 1.667, 1.667, 11.667
 563, 1.667, 1.667, 5
 564, 1.667, -5, 18.333
 565, 1.667, -5, 11.667
 566, 1.667, -5, 5
 567, 1.667, 5, 18.333
 568, 1.667, 5, 11.667
 569, 1.667, 5, 5
 570, 1.667, 5, 15
 571, 1.667, 5, 8.333
 572, 1.667, 5, 1.667
 573, 1.667, -1.667, 18.333
 574, 1.667, -1.667, 11.667
 575, 1.667, -1.667, 5
 576, 1.667, -1.667, 15
 577, 1.667, -1.667, 8.333
 578, 1.667, -1.667, 1.667
 579, 1.667, -8.333, 18.333
 580, 1.667, -8.333, 11.667
 581, 1.667, -8.333, 5
 582, 1.667, -8.333, 15
 583, 1.667, -8.333, 8.333
 584, 1.667, -8.333, 1.667
 585, 1.667, 8.333, 15
 586, 1.667, 8.333, 8.333
 587, 1.667, 8.333, 1.667
 588, 1.667, 1.667, 15
 589, 1.667, 1.667, 8.333
 590, 1.667, 1.667, 1.667
 591, 1.667, -5, 15
 592, 1.667, -5, 8.333
 593, 1.667, -5, 1.667
 594, 0.833, 10, 18.333
 595, 0.833, 10, 11.667
 596, 0.833, 10, 5
 597, 0.833, 6.667, 15
 598, 0.833, 6.667, 8.333
 599, 0.833, 6.667, 1.667
 600, 0.833, 3.333, 18.333
 601, 0.833, 3.333, 11.667
 602, 0.833, 3.333, 5
 603, 0.833, 0, 15
 604, 0.833, 0, 8.333
 605, 0.833, 0, 1.667
 606, 0.833, -3.333, 18.333
 607, 0.833, -3.333, 11.667
 608, 0.833, -3.333, 5
 609, 0.833, -6.667, 15
 610, 0.833, -6.667, 8.333
 611, 0.833, -6.667, 1.667
 612, 0.833, -10, 18.333
 613, 0.833, -10, 11.667
 614, 0.833, -10, 5
 615, 0, 10, 20
 616, 0, 10, 16.667
 617, 0, 10, 13.333
 618, 0, 10, 10
 619, 0, 10, 6.667
 620, 0, 10, 3.333
 621, 0, 10, 0
 622, 0, 8.333, 17.5
 623, 0, 8.333, 14.167
 624, 0, 8.333, 10.833
 625, 0, 8.333, 7.5
 626, 0, 8.333, 4.167
 627, 0, 8.333, 0.833
 628, 0, 6.667, 20
 629, 0, 6.667, 16.667
 630, 0, 6.667, 13.333
 631, 0, 6.667, 10
 632, 0, 6.667, 6.667
 633, 0, 6.667, 3.333
 634, 0, 6.667, 0
 635, 0, 5, 19.167
 636, 0, 5, 15.833
 637, 0, 5, 12.5
 638, 0, 5, 9.167
 639, 0, 5, 5.833
 640, 0, 5, 2.5
 641, 0, 3.333, 20
 642, 0, 3.333, 16.667
 643, 0, 3.333, 13.333
 644, 0, 3.333, 10
 645, 0, 3.333, 6.667
 646, 0, 3.333, 3.333
 647, 0, 3.333, 0
 648, 0, 1.667, 17.5
 649, 0, 1.667, 14.167
 650, 0, 1.667, 10.833
 651, 0, 1.667, 7.5
 652, 0, 1.667, 4.167
 653, 0, 1.667, 0.833
 654, 0, 0, 20
 655, 0, 0, 16.667
 656, 0, 0, 13.333
 657, 0, 0, 10
 658, 0, 0, 6.667
 659, 0, 0, 3.333
 660, 0, 0, 0
 661, 0, -1.667, 19.167
 662, 0, -1.667, 15.833
 663, 0, -1.667, 12.5
 664, 0, -1.667, 9.167
 665, 0, -1.667, 5.833
 666, 0, -1.667, 2.5
 667, 0, -3.333, 20
 668, 0, -3.333, 16.667
 669, 0, -3.333, 13.333
 670, 0, -3.333, 10
 671, 0, -3.333, 6.667
 672, 0, -3.333, 3.333
 673, 0, -3.333, 0
 674, 0, -5, 17.5
 675, 0, -5, 14.167
 676, 0, -5, 10.833
 677, 0, -5, 7.5
 678, 0, -5, 4.167
 679, 0, -5, 0.833
 680, 0, -6.667, 20
 681, 0, -6.667, 16.667
 682, 0, -6.667, 13.333
 683, 0, -6.667, 10
 684, 0, -6.667, 6.667
 685, 0, -6.667, 3.333
 686, 0, -6.667, 0
 687, 0, -8.333, 19.167
 688, 0, -8.333, 15.833
 689, 0, -8.333, 12.5
 690, 0, -8.333, 9.167
 691, 0, -8.333, 5.833
 692, 0, -8.333, 2.5
 693, 0, -10, 20
 694, 0, -10, 16.667
 695, 0, -10, 13.333
 696, 0, -10, 10
 697, 0, -10, 6.667
 698, 0, -10, 3.333
 699, 0, -10, 0
 700, -0.833, 10, 15
 701, -0.833, 10, 8.333
 702, -0.833, 10, 1.667
 703, -0.833, 6.667, 18.333
 704, -0.833, 6.667, 11.667
 705, -0.833, 6.667, 5
 706, -0.833, 3.333, 15
 707, -0.833, 3.333, 8.333
 708, -0.833, 3.333, 1.667
 709, -0.833, 0, 18.333
 710, -0.833, 0, 11.667
 711, -0.833, 0, 5
 712, -0.833, -3.333, 15
 713, -0.833, -3.333, 8.333
 714, -0.833, -3.333, 1.667
 715, -0.833, -6.667, 18.333
 716, -0.833, -6.667, 11.667
 717, -0.833, -6.667, 5
 718, -0.833, -10, 15
 719, -0.833, -10, 8.333
 720, -0.833, -10, 1.667
 721, -1.667, 5, 18.333
 722, -1.667, 5, 11.667
 723, -1.667, 5, 5
 724, -1.667, -1.667, 18.333
 725, -1.667, -1.667, 11.667
 726, -1.667, -1.667, 5
 727, -1.667, -8.333, 18.333
 728, -1.667, -8.333, 11.667
 729, -1.667, -8.333, 5
 730, -1.667, 8.333, 15
 731, -1.667, 8.333, 8.333
 732, -1.667, 8.333, 1.667
 733, -1.667, 1.667, 15
 734, -1.667, 1.667, 8.333
 735, -1.667, 1.667, 1.667
 736, -1.667, -5, 15
 737, -1.667, -5, 8.333
 738, -1.667, -5, 1.667
 739, -1.667, 8.333, 18.333
 740, -1.667, 8.333, 11.667
 741, -1.667, 8.333, 5
 742, -1.667, 1.667, 18.333
 743, -1.667, 1.667, 11.667
 744, -1.667, 1.667, 5
 745, -1.667, -5, 18.333
 746, -1.667, -5, 11.667
 747, -1.667, -5, 5
 748, -1.667, 9.167, 16.667
 749, -1.667, 9.167, 10
 750, -1.667, 9.167, 3.333
 751, -1.667, 7.5, 20
 752, -1.667, 7.5, 13.333
 753, -1.667, 7.5, 6.667
 754, -1.667, 7.5, 0
 755, -1.667, 5.833, 16.667
 756, -1.667, 5.833, 10
 757, -1.667, 5.833, 3.333
 758, -1.667, 5, 15
 759, -1.667, 5, 8.333
 760, -1.667, 5, 1.667
 761, -1.667, 4.167, 20
 762, -1.667, 4.167, 13.333
 763, -1.667, 4.167, 6.667
 764, -1.667, 4.167, 0
 765, -1.667, 2.5, 16.667
 766, -1.667, 2.5, 10
 767, -1.667, 2.5, 3.333
 768, -1.667, 0.833, 20
 769, -1.667, 0.833, 13.333
 770, -1.667, 0.833, 6.667
 771, -1.667, 0.833, 0
 772, -1.667, -0.833, 16.667
 773, -1.667, -0.833, 10
 774, -1.667, -0.833, 3.333
 775, -1.667, -1.667, 15
 776, -1.667, -1.667, 8.333
 777, -1.667, -1.667, 1.667
 778, -1.667, -2.5, 20
 779, -1.667, -2.5, 13.333
 780, -1.667, -2.5, 6.667
 781, -1.667, -2.5, 0
 782, -1.667, -4.167, 16.667
 783, -1.667, -4.167, 10
 784, -1.667, -4.167, 3.333
 785, -1.667, -5.833, 20
 786, -1.667, -5.833, 13.333
 787, -1.667, -5.833, 6.667
 788, -1.667, -5.833, 0
 789, -1.667, -7.5, 16.667
 790, -1.667, -7.5, 10
 791, -1.667, -7.5, 3.333
 792, -1.667, -8.333, 15
 793, -1.667, -8.333, 8.333
 794, -1.667, -8.333, 1.667
 795, -1.667, -9.167, 20
 796, -1.667, -9.167, 13.333
 797, -1.667, -9.167, 6.667
 798, -1.667, -9.167, 0
 799, -2.5, 10, 18.333
 800, -2.5, 10, 11.667
 801, -2.5, 10, 5
 802, -2.5, 6.667, 15
 803, -2.5, 6.667, 8.333
 804, -2.5, 6.667, 1.667
 805, -2.5, 3.333, 18.333
 806, -2.5, 3.333, 11.667
 807, -2.5, 3.333, 5
 808, -2.5, 0, 15
 809, -2.5, 0, 8.333
 810, -2.5, 0, 1.667
 811, -2.5, -3.333, 18.333
 812, -2.5, -3.333, 11.667
 813, -2.5, -3.333, 5
 814, -2.5, -6.667, 15
 815, -2.5, -6.667, 8.333
 816, -2.5, -6.667, 1.667
 817, -2.5, -10, 18.333
 818, -2.5, -10, 11.667
 819, -2.5, -10, 5
 820, -3.333, 10, 20
 821, -3.333, 10, 16.667
 822, -3.333, 10, 13.333
 823, -3.333, 10, 10
 824, -3.333, 10, 6.667
 825, -3.333, 10, 3.333
 826, -3.333, 10, 0
 827, -3.333, 8.333, 19.167
 828, -3.333, 8.333, 15.833
 829, -3.333, 8.333, 12.5
 830, -3.333, 8.333, 9.167
 831, -3.333, 8.333, 5.833
 832, -3.333, 8.333, 2.5
 833, -3.333, 6.667, 20
 834, -3.333, 6.667, 16.667
 835, -3.333, 6.667, 13.333
 836, -3.333, 6.667, 10
 837, -3.333, 6.667, 6.667
 838, -3.333, 6.667, 3.333
 839, -3.333, 6.667, 0
 840, -3.333, 5, 17.5
 841, -3.333, 5, 14.167
 842, -3.333, 5, 10.833
 843, -3.333, 5, 7.5
 844, -3.333, 5, 4.167
 845, -3.333, 5, 0.833
 846, -3.333, 3.333, 20
 847, -3.333, 3.333, 16.667
 848, -3.333, 3.333, 13.333
 849, -3.333, 3.333, 10
 850, -3.333, 3.333, 6.667
 851, -3.333, 3.333, 3.333
 852, -3.333, 3.333, 0
 853, -3.333, 1.667, 19.167
 854, -3.333, 1.667, 15.833
 855, -3.333, 1.667, 12.5
 856, -3.333, 1.667, 9.167
 857, -3.333, 1.667, 5.833
 858, -3.333, 1.667, 2.5
 859, -3.333, 0, 20
 860, -3.333, 0, 16.667
 861, -3.333, 0, 13.333
 862, -3.333, 0, 10
 863, -3.333, 0, 6.667
 864, -3.333, 0, 3.333
 865, -3.333, 0, 0
 866, -3.333, -1.667, 17.5
 867, -3.333, -1.667, 14.167
 868, -3.333, -1.667, 10.833
 869, -3.333, -1.667, 7.5
 870, -3.333, -1.667, 4.167
 871, -3.333, -1.667, 0.833
 872, -3.333, -3.333, 20
 873, -3.333, -3.333, 16.667
 874, -3.333, -3.333, 13.333
 875, -3.333, -3.333, 10
 876, -3.333, -3.333, 6.667
 877, -3.333, -3.333, 3.333
 878, -3.333, -3.333, 0
 879, -3.333, -5, 19.167
 880, -3.333, -5, 15.833
 881, -3.333, -5, 12.5
 882, -3.333, -5, 9.167
 883, -3.333, -5, 5.833
 884, -3.333, -5, 2.5
 885, -3.333, -6.667, 20
 886, -3.333, -6.667, 16.667
 887, -3.333, -6.667, 13.333
 888, -3.333, -6.667, 10
 889, -3.333, -6.667, 6.667
 890, -3.333, -6.667, 3.333
 891, -3.333, -6.667, 0
 892, -3.333, -8.333, 17.5
 893, -3.333, -8.333, 14.167
 894, -3.333, -8.333, 10.833
 895, -3.333, -8.333, 7.5
 896, -3.333, -8.333, 4.167
 897, -3.333, -8.333, 0.833
 898, -3.333, -10, 20
 899, -3.333, -10, 16.667
 900, -3.333, -10, 13.333
 901, -3.333, -10, 10
 902, -3.333, -10, 6.667
 903, -3.333, -10, 3.333
 904, -3.333, -10, 0
 905, -4.167, 10, 15
 906, -4.167, 10, 8.333
 907, -4.167, 10, 1.667
 908, -4.167, 6.667, 18.333
 909, -4.167, 6.667, 11.667
 910, -4.167, 6.667, 5
 911, -4.167, 3.333, 15
 912, -4.167, 3.333, 8.333
 913, -4.167, 3.333, 1.667
 914, -4.167, 0, 18.333
 915, -4.167, 0, 11.667
 916, -4.167, 0, 5
 917, -4.167, -3.333, 15
 918, -4.167, -3.333, 8.333
 919, -4.167, -3.333, 1.667
 920, -4.167, -6.667, 18.333
 921, -4.167, -6.667, 11.667
 922, -4.167, -6.667, 5
 923, -4.167, -10, 15
 924, -4.167, -10, 8.333
 925, -4.167, -10, 1.667
 926, -5, 9.167, 20
 927, -5, 9.167, 13.333
 928, -5, 9.167, 6.667
 929, -5, 9.167, 0
 930, -5, 7.5, 16.667
 931, -5, 7.5, 10
 932, -5, 7.5, 3.333
 933, -5, 5.833, 20
 934, -5, 5.833, 13.333
 935, -5, 5.833, 6.667
 936, -5, 5.833, 0
 937, -5, 4.167, 16.667
 938, -5, 4.167, 10
 939, -5, 4.167, 3.333
 940, -5, 2.5, 20
 941, -5, 2.5, 13.333
 942, -5, 2.5, 6.667
 943, -5, 2.5, 0
 944, -5, 0.833, 16.667
 945, -5, 0.833, 10
 946, -5, 0.833, 3.333
 947, -5, -0.833, 20
 948, -5, -0.833, 13.333
 949, -5, -0.833, 6.667
 950, -5, -0.833, 0
 951, -5, -2.5, 16.667
 952, -5, -2.5, 10
 953, -5, -2.5, 3.333
 954, -5, -4.167, 20
 955, -5, -4.167, 13.333
 956, -5, -4.167, 6.667
 957, -5, -4.167, 0
 958, -5, -5.833, 16.667
 959, -5, -5.833, 10
 960, -5, -5.833, 3.333
 961, -5, -7.5, 20
 962, -5, -7.5, 13.333
 963, -5, -7.5, 6.667
 964, -5, -7.5, 0
 965, -5, -9.167, 16.667
 966, -5, -9.167, 10
 967, -5, -9.167, 3.333
 968, -5, 8.333, 18.333
 969, -5, 8.333, 11.667
 970, -5, 8.333, 5
 971, -5, 1.667, 18.333
 972, -5, 1.667, 11.667
 973, -5, 1.667, 5
 974, -5, -5, 18.333
 975, -5, -5, 11.667
 976, -5, -5, 5
 977, -5, 5, 18.333
 978, -5, 5, 11.667
 979, -5, 5, 5
 980, -5, 5, 15
 981, -5, 5, 8.333
 982, -5, 5, 1.667
 983, -5, -1.667, 18.333
 984, -5, -1.667, 11.667
 985, -5, -1.667, 5
 986, -5, -1.667, 15
 987, -5, -1.667, 8.333
 988, -5, -1.667, 1.667
 989, -5, -8.333, 18.333
 990, -5, -8.333, 11.667
 991, -5, -8.333, 5
 992, -5, -8.333, 15
 993, -5, -8.333, 8.333
 994, -5, -8.333, 1.667
 995, -5, 8.333, 15
 996, -5, 8.333, 8.333
 997, -5, 8.333, 1.667
 998, -5, 1.667, 15
 999, -5, 1.667, 8.333
 1000, -5, 1.667, 1.667
 1001, -5, -5, 15
 1002, -5, -5, 8.333
 1003, -5, -5, 1.667
 1004, -5.833, 10, 18.333
 1005, -5.833, 10, 11.667
 1006, -5.833, 10, 5
 1007, -5.833, 6.667, 15
 1008, -5.833, 6.667, 8.333
 1009, -5.833, 6.667, 1.667
 1010, -5.833, 3.333, 18.333
 1011, -5.833, 3.333, 11.667
 1012, -5.833, 3.333, 5
 1013, -5.833, 0, 15
 1014, -5.833, 0, 8.333
 1015, -5.833, 0, 1.667
 1016, -5.833, -3.333, 18.333
 1017, -5.833, -3.333, 11.667
 1018, -5.833, -3.333, 5
 1019, -5.833, -6.667, 15
 1020, -5.833, -6.667, 8.333
 1021, -5.833, -6.667, 1.667
 1022, -5.833, -10, 18.333
 1023, -5.833, -10, 11.667
 1024, -5.833, -10, 5
 1025, -6.667, 10, 20
 1026, -6.667, 10, 16.667
 1027, -6.667, 10, 13.333
 1028, -6.667, 10, 10
 1029, -6.667, 10, 6.667
 1030, -6.667, 10, 3.333
 1031, -6.667, 10, 0
 1032, -6.667, 8.333, 17.5
 1033, -6.667, 8.333, 14.167
 1034, -6.667, 8.333, 10.833
 1035, -6.667, 8.333, 7.5
 1036, -6.667, 8.333, 4.167
 1037, -6.667, 8.333, 0.833
 1038, -6.667, 6.667, 20
 1039, -6.667, 6.667, 16.667
 1040, -6.667, 6.667, 13.333
 1041, -6.667, 6.667, 10
 1042, -6.667, 6.667, 6.667
 1043, -6.667, 6.667, 3.333
 1044, -6.667, 6.667, 0
 1045, -6.667, 5, 19.167
 1046, -6.667, 5, 15.833
 1047, -6.667, 5, 12.5
 1048, -6.667, 5, 9.167
 1049, -6.667, 5, 5.833
 1050, -6.667, 5, 2.5
 1051, -6.667, 3.333, 20
 1052, -6.667, 3.333, 16.667
 1053, -6.667, 3.333, 13.333
 1054, -6.667, 3.333, 10
 1055, -6.667, 3.333, 6.667
 1056, -6.667, 3.333, 3.333
 1057, -6.667, 3.333, 0
 1058, -6.667, 1.667, 17.5
 1059, -6.667, 1.667, 14.167
 1060, -6.667, 1.667, 10.833
 1061, -6.667, 1.667, 7.5
 1062, -6.667, 1.667, 4.167
 1063, -6.667, 1.667, 0.833
 1064, -6.667, 0, 20
 1065, -6.667, 0, 16.667
 1066, -6.667, 0, 13.333
 1067, -6.667, 0, 10
 1068, -6.667, 0, 6.667
 1069, -6.667, 0, 3.333
 1070, -6.667, 0, 0
 1071, -6.667, -1.667, 19.167
 1072, -6.667, -1.667, 15.833
 1073, -6.667, -1.667, 12.5
 1074, -6.667, -1.667, 9.167
 1075, -6.667, -1.667, 5.833
 1076, -6.667, -1.667, 2.5
 1077, -6.667, -3.333, 20
 1078, -6.667, -3.333, 16.667
 1079, -6.667, -3.333, 13.333
 1080, -6.667, -3.333, 10
 1081, -6.667, -3.333, 6.667
 1082, -6.667, -3.333, 3.333
 1083, -6.667, -3.333, 0
 1084, -6.667, -5, 17.5
 1085, -6.667, -5, 14.167
 1086, -6.667, -5, 10.833
 1087, -6.667, -5, 7.5
 1088, -6.667, -5, 4.167
 1089, -6.667, -5, 0.833
 1090, -6.667, -6.667, 20
 1091, -6.667, -6.667, 16.667
 1092, -6.667, -6.667, 13.333
 1093, -6.667, -6.667, 10
 1094, -6.667, -6.667, 6.667
 1095, -6.667, -6.667, 3.333
 1096, -6.667, -6.667, 0
 1097, -6.667, -8.333, 19.167
 1098, -6.667, -8.333, 15.833
 1099, -6.667, -8.333, 12.5
 1100, -6.667, -8.333, 9.167
 1101, -6.667, -8.333, 5.833
 1102, -6.667, -8.333, 2.5
 1103, -6.667, -10, 20
 1104, -6.667, -10, 16.667
 1105, -6.667, -10, 13.333
 1106, -6.667, -10, 10
 1107, -6.667, -10, 6.667
 1108, -6.667, -10, 3.333
 1109, -6.667, -10, 0
 1110, -7.5, 10, 15
 1111, -7.5, 10, 8.333
 1112, -7.5, 10, 1.667
 1113, -7.5, 6.667, 18.333
 1114, -7.5, 6.667, 11.667
 1115, -7.5, 6.667, 5
 1116, -7.5, 3.333, 15
 1117, -7.5, 3.333, 8.333
 1118, -7.5, 3.333, 1.667
 1119, -7.5, 0, 18.333
 1120, -7.5, 0, 11.667
 1121, -7.5, 0, 5
 1122, -7.5, -3.333, 15
 1123, -7.5, -3.333, 8.333
 1124, -7.5, -3.333, 1.667
 1125, -7.5, -6.667, 18.333
 1126, -7.5, -6.667, 11.667
 1127, -7.5, -6.667, 5
 1128, -7.5, -10, 15
 1129, -7.5, -10, 8.333
 1130, -7.5, -10, 1.667
 1131, -8.333, 5, 18.333
 1132, -8.333, 5, 11.667
 1133, -8.333, 5, 5
 1134, -8.333, -1.667, 18.333
 1135, -8.333, -1.667, 11.667
 1136, -8.333, -1.667, 5
 1137, -8.333, -8.333, 18.333
 1138, -8.333, -8.333, 11.667
 1139, -8.333, -8.333, 5
 1140, -8.333, 8.333, 15
 1141, -8.333, 8.333, 8.333
 1142, -8.333, 8.333, 1.667
 1143, -8.333, 1.667, 15
 1144, -8.333, 1.667, 8.333
 1145, -8.333, 1.667, 1.667
 1146, -8.333, -5, 15
 1147, -8.333, -5, 8.333
 1148, -8.333, -5, 1.667
 1149, -8.333, 8.333, 18.333
 1150, -8.333, 8.333, 11.667
 1151, -8.333, 8.333, 5
 1152, -8.333, 1.667, 18.333
 1153, -8.333, 1.667, 11.667
 1154, -8.333, 1.667, 5
 1155, -8.333, -5, 18.333
 1156, -8.333, -5, 11.667
 1157, -8.333, -5, 5
 1158, -8.333, 9.167, 16.667
 1159, -8.333, 9.167, 10
 1160, -8.333, 9.167, 3.333
 1161, -8.333, 7.5, 20
 1162, -8.333, 7.5, 13.333
 1163, -8.333, 7.5, 6.667
 1164, -8.333, 7.5, 0
 1165, -8.333, 5.833, 16.667
 1166, -8.333, 5.833, 10
 1167, -8.333, 5.833, 3.333
 1168, -8.333, 5, 15
 1169, -8.333, 5, 8.333
 1170, -8.333, 5, 1.667
 1171, -8.333, 4.167, 20
 1172, -8.333, 4.167, 13.333
 1173, -8.333, 4.167, 6.667
 1174, -8.333, 4.167, 0
 1175, -8.333, 2.5, 16.667
 1176, -8.333, 2.5, 10
 1177, -8.333, 2.5, 3.333
 1178, -8.333, 0.833, 20
 1179, -8.333, 0.833, 13.333
 1180, -8.333, 0.833, 6.667
 1181, -8.333, 0.833, 0
 1182, -8.333, -0.833, 16.667
 1183, -8.333, -0.833, 10
 1184, -8.333, -0.833, 3.333
 1185, -8.333, -1.667, 15
 1186, -8.333, -1.667, 8.333
 1187, -8.333, -1.667, 1.667
 1188, -8.333, -2.5, 20
 1189, -8.333, -2.5, 13.333
 1190, -8.333, -2.5, 6.667
 1191, -8.333, -2.5, 0
 1192, -8.333, -4.167, 16.667
 1193, -8.333, -4.167, 10
 1194, -8.333, -4.167, 3.333
 1195, -8.333, -5.833, 20
 1196, -8.333, -5.833, 13.333
 1197, -8.333, -5.833, 6.667
 1198, -8.333, -5.833, 0
 1199, -8.333, -7.5, 16.667
 1200, -8.333, -7.5, 10
 1201, -8.333, -7.5, 3.333
 1202, -8.333, -8.333, 15
 1203, -8.333, -8.333, 8.333
 1204, -8.333, -8.333, 1.667
 1205, -8.333, -9.167, 20
 1206, -8.333, -9.167, 13.333
 1207, -8.333, -9.167, 6.667
 1208, -8.333, -9.167, 0
 1209, -9.167, 10, 18.333
 1210, -9.167, 10, 11.667
 1211, -9.167, 10, 5
 1212, -9.167, 6.667, 15
 1213, -9.167, 6.667, 8.333
 1214, -9.167, 6.667, 1.667
 1215, -9.167, 3.333, 18.333
 1216, -9.167, 3.333, 11.667
 1217, -9.167, 3.333, 5
 1218, -9.167, 0, 15
 1219, -9.167, 0, 8.333
 1220, -9.167, 0, 1.667
 1221, -9.167, -3.333, 18.333
 1222, -9.167, -3.333, 11.667
 1223, -9.167, -3.333, 5
 1224, -9.167, -6.667, 15
 1225, -9.167, -6.667, 8.333
 1226, -9.167, -6.667, 1.667
 1227, -9.167, -10, 18.333
 1228, -9.167, -10, 11.667
 1229, -9.167, -10, 5
 1230, -10, 10, 20
 1231, -10, 10, 16.667
 1232, -10, 10, 13.333
 1233, -10, 10, 10
 1234, -10, 10, 6.667
 1235, -10, 10, 3.333
 1236, -10, 8.333, 19.167
 1237, -10, 8.333, 15.833
 1238, -10, 8.333, 12.5
 1239, -10, 8.333, 9.167
 1240, -10, 8.333, 5.833
 1241, -10, 8.333, 2.5
 1242, -10, 6.667, 20
 1243, -10, 6.667, 16.667
 1244, -10, 6.667, 13.333
 1245, -10, 6.667, 10
 1246, -10, 6.667, 6.667
 1247, -10, 6.667, 3.333
 1248, -10, 6.667, 0
 1249, -10, 5, 17.5
 1250, -10, 5, 14.167
 1251, -10, 5, 10.833
 1252, -10, 5, 7.5
 1253, -10, 5, 4.167
 1254, -10, 5, 0.833
 1255, -10, 3.333, 20
 1256, -10, 3.333, 16.667
 1257, -10, 3.333, 13.333
 1258, -10, 3.333, 10
 1259, -10, 3.333, 6.667
 1260, -10, 3.333, 3.333
 1261, -10, 3.333, 0
 1262, -10, 1.667, 19.167
 1263, -10, 1.667, 15.833
 1264, -10, 1.667, 12.5
 1265, -10, 1.667, 9.167
 1266, -10, 1.667, 5.833
 1267, -10, 1.667, 2.5
 1268, -10, 0, 20
 1269, -10, 0, 16.667
 1270, -10, 0, 13.333
 1271, -10, 0, 10
 1272, -10, 0, 6.667
 1273, -10, 0, 3.333
 1274, -10, 0, 0
 1275, -10, -1.667, 17.5
 1276, -10, -1.667, 14.167
 1277, -10, -1.667, 10.833
 1278, -10, -1.667, 7.5
 1279, -10, -1.667, 4.167
 1280, -10, -1.667, 0.833
 1281, -10, -3.333, 20
 1282, -10, -3.333, 16.667
 1283, -10, -3.333, 13.333
 1284, -10, -3.333, 10
 1285, -10, -3.333, 6.667
 1286, -10, -3.333, 3.333
 1287, -10, -3.333, 0
 1288, -10, -5, 19.167
 1289, -10, -5, 15.833
 1290, -10, -5, 12.5
 1291, -10, -5, 9.167
 1292, -10, -5, 5.833
 1293, -10, -5, 2.5
 1294, -10, -6.667, 20
 1295, -10, -6.667, 16.667
 1296, -10, -6.667, 13.333
 1297, -10, -6.667, 10
 1298, -10, -6.667, 6.667
 1299, -10, -6.667, 3.333
 1300, -10, -6.667, 0
 1301, -10, -8.333, 17.5
 1302, -10, -8.333, 14.167
 1303, -10, -8.333, 10.833
 1304, -10, -8.333, 7.5
 1305, -10, -8.333, 4.167
 1306, -10, -8.333, 0.833
 1307, -10, -10, 20
 1308, -10, -10, 16.667
 1309, -10, -10, 13.333
 1310, -10, -10, 10
 1311, -10, -10, 6.667
 1312, -10, -10, 3.333
 1313, -10, -10, 0
*ELEMENT,TYPE=S4,ELSET=Es4example
1, 994, 964, 891, 897
2, 994, 897, 904, 925
3, 925, 903, 967, 994
4, 967, 1108, 1102, 994
5, 1021, 994, 1102, 1095
6, 1003, 1021, 1095, 960
7, 1003, 960, 890, 884
8, 884, 877, 919, 1003
9, 919, 878, 957, 1003
10, 1003, 957, 1083, 1089
11, 1003, 1089, 1096, 1021
12, 1021, 1096, 964, 994
13, 1089, 1148, 1198, 1096
14, 1148, 1226, 1300, 1198
15, 1306, 1300, 1226, 1204
16, 1208, 1313, 1306, 1204
17, 1130, 1109, 1208, 1204
18, 1108, 1130, 1204, 1102
19, 1102, 1204, 1201, 1095
20, 1095, 1201, 1139, 1127
21, 1095, 1127, 1157, 1088
22, 1095, 1088, 976, 960
23, 960, 976, 922, 890
24, 922, 991, 896, 890
25, 903, 896, 991, 967
26, 991, 1024, 1108, 967
27, 991, 1101, 1107, 1024
28, 1101, 1139, 1207, 1107
29, 1139, 1229, 1311, 1207
30, 1139, 1305, 1312, 1229
31, 1201, 1299, 1305, 1139
32, 1201, 1204, 1226, 1299
33, 1226, 1148, 1293, 1299
34, 1286, 1293, 1148, 1194
35, 1157, 1223, 1286, 1194
36, 1088, 1157, 1194, 1082
37, 1082, 1018, 976, 1088
38, 1018, 1081, 956, 976
39, 956, 876, 883, 976
40, 976, 883, 889, 922
41, 889, 963, 991, 922
42, 991, 963, 1094, 1101
43, 1101, 1094, 1127, 1139
44, 1094, 1197, 1157, 1127
45, 1197, 1298, 1292, 1157
46, 1292, 1285, 1223, 1157
47, 1194, 1148, 1124, 1082
48, 1083, 1124, 1148, 1089
49, 988, 950, 865, 871
50, 988, 871, 878, 919
51, 919, 877, 953, 988
52, 953, 1082, 1076, 988
53, 1015, 988, 1076, 1069
54, 1000, 1015, 1069, 946
55, 1000, 946, 864, 858
56, 858, 851, 913, 1000
57, 913, 852, 943, 1000
58, 1000, 943, 1057, 1063
59, 1000, 1063, 1070, 1015
60, 1015, 1070, 950, 988
61, 1063, 1145, 1181, 1070
62, 1145, 1220, 1274, 1181
63, 1280, 1274, 1220, 1187
64, 1191, 1287, 1280, 1187
65, 1124, 1083, 1191, 1187
66, 1082, 1124, 1187, 1076
67, 1076, 1187, 1184, 1069
68, 1069, 1184, 1136, 1121
69, 1069, 1121, 1154, 1062
70, 1069, 1062, 973, 946
71, 946, 973, 916, 864
72, 916, 985, 870, 864
73, 877, 870, 985, 953
74, 985, 1018, 1082, 953
75, 985, 1075, 1081, 1018
76, 1075, 1136, 1190, 1081
77, 1136, 1223, 1285, 1190
78, 1136, 1279, 1286, 1223
79, 1184, 1273, 1279, 1136
80, 1184, 1187, 1220, 1273
81, 1220, 1145, 1267, 1273
82, 1260, 1267, 1145, 1177
83, 1154, 1217, 1260, 1177
84, 1062, 1154, 1177, 1056
85, 1056, 1012, 973, 1062
86, 1012, 1055, 942, 973
87, 942, 850, 857, 973
88, 973, 857, 863, 916
89, 863, 949, 985, 916
90, 985, 949, 1068, 1075
91, 1075, 1068, 1121, 1136
92, 1068, 1180, 1154, 1121
93, 1180, 1272, 1266, 1154
94, 1266, 1259, 1217, 1154
95, 1177, 1145, 1118, 1056
96, 1057, 1118, 1145, 1063
97, 982, 936, 839, 845
98, 982, 845, 852, 913
99, 913, 851, 939, 982
100, 939, 1056, 1050, 982
101, 1009, 982, 1050, 1043
102, 997, 1009, 1043, 932
103, 997, 932, 838, 832
104, 832, 825, 907, 997
105, 907, 826, 929, 997
106, 997, 929, 1031, 1037
107, 997, 1037, 1044, 1009
108, 1009, 1044, 936, 982
109, 1037, 1142, 1164, 1044
110, 1142, 1214, 1248, 1164
111, 1254, 1248, 1214, 1170
112, 1174, 1261, 1254, 1170
113, 1118, 1057, 1174, 1170
114, 1056, 1118, 1170, 1050
115, 1050, 1170, 1167, 1043
116, 1043, 1167, 1133, 1115
117, 1043, 1115, 1151, 1036
118, 1043, 1036, 970, 932
119, 932, 970, 910, 838
120, 910, 979, 844, 838
121, 851, 844, 979, 939
122, 979, 1012, 1056, 939
123, 979, 1049, 1055, 1012
124, 1049, 1133, 1173, 1055
125, 1133, 1217, 1259, 1173
126, 1133, 1253, 1260, 1217
127, 1167, 1247, 1253, 1133
128, 1167, 1170, 1214, 1247
129, 1214, 1142, 1241, 1247
130, 1235, 1241, 1142, 1160
131, 1151, 1211, 1235, 1160
132, 1036, 1151, 1160, 1030
133, 1030, 1006, 970, 1036
134, 1006, 1029, 928, 970
135, 928, 824, 831, 970
136, 970, 831, 837, 910
137, 837, 935, 979, 910
138, 979, 935, 1042, 1049
139, 1049, 1042, 1115, 1133
140, 1042, 1163, 1151, 1115
141, 1163, 1246, 1240, 1151
142, 1240, 1234, 1211, 1151
143, 1160, 1142, 1112, 1030
144, 1031, 1112, 1142, 1037
145, 584, 554, 481, 487
146, 584, 487, 494, 515
147, 515, 493, 557, 584
148, 557, 698, 692, 584
149, 611, 584, 692, 685
150, 593, 611, 685, 550
151, 593, 550, 480, 474
152, 474, 467, 509, 593
153, 509, 468, 547, 593
154, 593, 547, 673, 679
155, 593, 679, 686, 611
156, 611, 686, 554, 584
157, 679, 738, 788, 686
158, 738, 816, 891, 788
159, 897, 891, 816, 794
160, 798, 904, 897, 794
161, 720, 699, 798, 794
162, 698, 720, 794, 692
163, 692, 794, 791, 685
164, 685, 791, 729, 717
165, 685, 717, 747, 678
166, 685, 678, 566, 550
167, 550, 566, 512, 480
168, 512, 581, 486, 480
169, 493, 486, 581, 557
170, 581, 614, 698, 557
171, 581, 691, 697, 614
172, 691, 729, 797, 697
173, 729, 819, 902, 797
174, 729, 896, 903, 819
175, 791, 890, 896, 729
176, 791, 794, 816, 890
177, 816, 738, 884, 890
178, 877, 884, 738, 784
179, 747, 813, 877, 784
180, 678, 747, 784, 672
181, 672, 608, 566, 678
182, 608, 671, 546, 566
183, 546, 466, 473, 566
184, 566, 473, 479, 512
185, 479, 553, 581, 512
186, 581, 553, 684, 691
187, 691, 684, 717, 729
188, 684, 787, 747, 717
189, 787, 889, 883, 747
190, 883, 876, 813, 747
191, 784, 738, 714, 672
192, 673, 714, 738, 679
193, 578, 540, 455, 461
194, 578, 461, 468, 509
195, 509, 467, 543, 578
196, 543, 672, 666, 578
197, 605, 578, 666, 659
198, 590, 605, 659, 536
199, 590, 536, 454, 448
200, 448, 441, 503, 590
201, 503, 442, 533, 590
202, 590, 533, 647, 653
203, 590, 653, 660, 605
204, 605, 660, 540, 578
205, 653, 735, 771, 660
206, 735, 810, 865, 771
207, 871, 865, 810, 777
208, 781, 878, 871, 777
209, 714, 673, 781, 777
210, 672, 714, 777, 666
211, 666, 777, 774, 659
212, 659, 774, 726, 711
213, 659, 711, 744, 652
214, 659, 652, 563, 536
215, 536, 563, 506, 454
216, 506, 575, 460, 454
217, 467, 460, 575, 543
218, 575, 608, 672, 543
219, 575, 665, 671, 608
220, 665, 726, 780, 671
221, 726, 813, 876, 780
222, 726, 870, 877, 813
223, 774, 864, 870, 726
224, 774, 777, 810, 864
225, 810, 735, 858, 864
226, 851, 858, 735, 767
227, 744, 807, 851, 767
228, 652, 744, 767, 646
229, 646, 602, 563, 652
230, 602, 645, 532, 563
231, 532, 440, 447, 563
232, 563, 447, 453, 506
233, 453, 539, 575, 506
234, 575, 539, 658, 665
235, 665, 658, 711, 726
236, 658, 770, 744, 711
237, 770, 863, 857, 744
238, 857, 850, 807, 744
239, 767, 735, 708, 646
240, 647, 708, 735, 653
241, 572, 526, 429, 435
242, 572, 435, 442, 503
243, 503, 441, 529, 572
244, 529, 646, 640, 572
245, 599, 572, 640, 633
246, 587, 599, 633, 522
247, 587, 522, 428, 422
248, 422, 415, 497, 587
249, 497, 416, 519, 587
250, 587, 519, 621, 627
251, 587, 627, 634, 599
252, 599, 634, 526, 572
253, 627, 732, 754, 634
254, 732, 804, 839, 754
255, 845, 839, 804, 760
256, 764, 852, 845, 760
257, 708, 647, 764, 760
258, 646, 708, 760, 640
259, 640, 760, 757, 633
260, 633, 757, 723, 705
261, 633, 705, 741, 626
262, 633, 626, 560, 522
263, 522, 560, 500, 428
264, 500, 569, 434, 428
265, 441, 434, 569, 529
266, 569, 602, 646, 529
267, 569, 639, 645, 602
268, 639, 723, 763, 645
269, 723, 807, 850, 763
270, 723, 844, 851, 807
271, 757, 838, 844, 723
272, 757, 760, 804, 838
273, 804, 732, 832, 838
274, 825, 832, 732, 750
275, 741, 801, 825, 750
276, 626, 741, 750, 620
277, 620, 596, 560, 626
278, 596, 619, 518, 560
279, 518, 414, 421, 560
280, 560, 421, 427, 500
281, 427, 525, 569, 500
282, 569, 525, 632, 639
283, 639, 632, 705, 723
284, 632, 753, 741, 705
285, 753, 837, 831, 741
286, 831, 824, 801, 741
287, 750, 732, 702, 620
288, 621, 702, 732, 627
289, 174, 144, 72, 78
290, 174, 78, 84, 105
291, 105, 83, 147, 174
292, 147, 288, 282, 174
293, 201, 174, 282, 275
294, 183, 201, 275, 140
295, 183, 140, 71, 65
296, 65, 58, 99, 183
297, 99, 59, 137, 183
298, 183, 137, 263, 269
299, 183, 269, 276, 201
300, 201, 276, 144, 174
301, 269, 328, 378, 276
302, 328, 406, 481, 378
303, 487, 481, 406, 384
304, 388, 494, 487, 384
305, 310, 289, 388, 384
306, 288, 310, 384, 282
307, 282, 384, 381, 275
308, 275, 381, 319, 307
309, 275, 307, 337, 268
310, 275, 268, 156, 140
311, 140, 156, 102, 71
312, 102, 171, 77, 71
313, 83, 77, 171, 147
314, 171, 204, 288, 147
315, 171, 281, 287, 204
316, 281, 319, 387, 287
317, 319, 409, 492, 387
318, 319, 486, 493, 409
319, 381, 480, 486, 319
320, 381, 384, 406, 480
321, 406, 328, 474, 480
322, 467, 474, 328, 374
323, 337, 403, 467, 374
324, 268, 337, 374, 262
325, 262, 198, 156, 268
326, 198, 261, 136, 156
327, 136, 57, 64, 156
328, 156, 64, 70, 102
329, 70, 143, 171, 102
330, 171, 143, 274, 281
331, 281, 274, 307, 319
332, 274, 377, 337, 307
333, 377, 479, 473, 337
334, 473, 466, 403, 337
335, 374, 328, 304, 262
336, 263, 304, 328, 269
337, 168, 130, 46, 52
338, 168, 52, 59, 99
339, 99, 58, 133, 168
340, 133, 262, 256, 168
341, 195, 168, 256, 249
342, 180, 195, 249, 126
343, 180, 126, 45, 39
344, 39, 32, 93, 180
345, 93, 33, 123, 180
346, 180, 123, 237, 243
347, 180, 243, 250, 195
348, 195, 250, 130, 168
349, 243, 325, 361, 250
350, 325, 400, 455, 361
351, 461, 455, 400, 367
352, 371, 468, 461, 367
353, 304, 263, 371, 367
354, 262, 304, 367, 256
355, 256, 367, 364, 249
356, 249, 364, 316, 301
357, 249, 301, 334, 242
358, 249, 242, 153, 126
359, 126, 153, 96, 45
360, 96, 165, 51, 45
361, 58, 51, 165, 133
362, 165, 198, 262, 133
363, 165, 255, 261, 198
364, 255, 316, 370, 261
365, 316, 403, 466, 370
366, 316, 460, 467, 403
367, 364, 454, 460, 316
368, 364, 367, 400, 454
369, 400, 325, 448, 454
370, 441, 448, 325, 357
371, 334, 397, 441, 357
372, 242, 334, 357, 236
373, 236, 192, 153, 242
374, 192, 235, 122, 153
375, 122, 31, 38, 153
376, 153, 38, 44, 96
377, 44, 129, 165, 96
378, 165, 129, 248, 255
379, 255, 248, 301, 316
380, 248, 360, 334, 301
381, 360, 453, 447, 334
382, 447, 440, 397, 334
383, 357, 325, 298, 236
384, 237, 298, 325, 243
385, 162, 116, 20, 26
386, 162, 26, 33, 93
387, 93, 32, 119, 162
388, 119, 236, 230, 162
389, 189, 162, 230, 223
390, 177, 189, 223, 112
391, 177, 112, 19, 13
392, 13, 6, 87, 177
393, 87, 7, 109, 177
394, 177, 109, 211, 217
395, 177, 217, 224, 189
396, 189, 224, 116, 162
397, 217, 322, 344, 224
398, 322, 394, 429, 344
399, 435, 429, 394, 350
400, 354, 442, 435, 350
401, 298, 237, 354, 350
402, 236, 298, 350, 230
403, 230, 350, 347, 223
404, 223, 347, 313, 295
405, 223, 295, 331, 216
406, 223, 216, 150, 112
407, 112, 150, 90, 19
408, 90, 159, 25, 19
409, 32, 25, 159, 119
410, 159, 192, 236, 119
411, 159, 229, 235, 192
412, 229, 313, 353, 235
413, 313, 397, 440, 353
414, 313, 434, 441, 397
415, 347, 428, 434, 313
416, 347, 350, 394, 428
417, 394, 322, 422, 428
418, 415, 422, 322, 340
419, 331, 391, 415, 340
420, 216, 331, 340, 210
421, 210, 186, 150, 216
422, 186, 209, 108, 150
423, 108, 5, 12, 150
424, 150, 12, 18, 90
425, 18, 115, 159, 90
426, 159, 115, 222, 229
427, 229, 222, 295, 313
428, 222, 343, 331, 295
429, 343, 427, 421, 331
430, 421, 414, 391, 331
431, 340, 322, 292, 210
432, 211, 292, 322, 217
433, 993, 963, 889, 895
434, 993, 895, 902, 924
435, 924, 901, 966, 993
436, 966, 1106, 1100, 993
437, 1020, 993, 1100, 1093
438, 1002, 1020, 1093, 959
439, 1002, 959, 888, 882
440, 882, 875, 918, 1002
441, 918, 876, 956, 1002
442, 1002, 956, 1081, 1087
443, 1002, 1087, 1094, 1020
444, 1020, 1094, 963, 993
445, 1087, 1147, 1197, 1094
446, 1147, 1225, 1298, 1197
447, 1304, 1298, 1225, 1203
448, 1207, 1311, 1304, 1203
449, 1129, 1107, 1207, 1203
450, 1106, 1129, 1203, 1100
451, 1100, 1203, 1200, 1093
452, 1093, 1200, 1138, 1126
453, 1093, 1126, 1156, 1086
454, 1093, 1086, 975, 959
455, 959, 975, 921, 888
456, 921, 990, 894, 888
457, 901, 894, 990, 966
458, 990, 1023, 1106, 966
459, 990, 1099, 1105, 1023
460, 1099, 1138, 1206, 1105
461, 1138, 1228, 1309, 1206
462, 1138, 1303, 1310, 1228
463, 1200, 1297, 1303, 1138
464, 1200, 1203, 1225, 1297
465, 1225, 1147, 1291, 1297
466, 1284, 1291, 1147, 1193
467, 1156, 1222, 1284, 1193
468, 1086, 1156, 1193, 1080
469, 1080, 1017, 975, 1086
470, 1017, 1079, 955, 975
471, 955, 874, 881, 975
472, 975, 881, 887, 921
473, 887, 962, 990, 921
474, 990, 962, 1092, 1099
475, 1099, 1092, 1126, 1138
476, 1092, 1196, 1156, 1126
477, 1196, 1296, 1290, 1156
478, 1290, 1283, 1222, 1156
479, 1193, 1147, 1123, 1080
480, 1081, 1123, 1147, 1087
481, 987, 949, 863, 869
482, 987, 869, 876, 918
483, 918, 875, 952, 987
484, 952, 1080, 1074, 987
485, 1014, 987, 1074, 1067
486, 999, 1014, 1067, 945
487, 999, 945, 862, 856
488, 856, 849, 912, 999
489, 912, 850, 942, 999
490, 999, 942, 1055, 1061
491, 999, 1061, 1068, 1014
492, 1014, 1068, 949, 987
493, 1061, 1144, 1180, 1068
494, 1144, 1219, 1272, 1180
495, 1278, 1272, 1219, 1186
496, 1190, 1285, 1278, 1186
497, 1123, 1081, 1190, 1186
498, 1080, 1123, 1186, 1074
499, 1074, 1186, 1183, 1067
500, 1067, 1183, 1135, 1120
501, 1067, 1120, 1153, 1060
502, 1067, 1060, 972, 945
503, 945, 972, 915, 862
504, 915, 984, 868, 862
505, 875, 868, 984, 952
506, 984, 1017, 1080, 952
507, 984, 1073, 1079, 1017
508, 1073, 1135, 1189, 1079
509, 1135, 1222, 1283, 1189
510, 1135, 1277, 1284, 1222
511, 1183, 1271, 1277, 1135
512, 1183, 1186, 1219, 1271
513, 1219, 1144, 1265, 1271
514, 1258, 1265, 1144, 1176
515, 1153, 1216, 1258, 1176
516, 1060, 1153, 1176, 1054
517, 1054, 1011, 972, 1060
518, 1011, 1053, 941, 972
519, 941, 848, 855, 972
520, 972, 855, 861, 915
521, 861, 948, 984, 915
522, 984, 948, 1066, 1073
523, 1073, 1066, 1120, 1135
524, 1066, 1179, 1153, 1120
525, 1179, 1270, 1264, 1153
526, 1264, 1257, 1216, 1153
527, 1176, 1144, 1117, 1054
528, 1055, 1117, 1144, 1061
529, 981, 935, 837, 843
530, 981, 843, 850, 912
531, 912, 849, 938, 981
532, 938, 1054, 1048, 981
533, 1008, 981, 1048, 1041
534, 996, 1008, 1041, 931
535, 996, 931, 836, 830
536, 830, 823, 906, 996
537, 906, 824, 928, 996
538, 996, 928, 1029, 1035
539, 996, 1035, 1042, 1008
540, 1008, 1042, 935, 981
541, 1035, 1141, 1163, 1042
542, 1141, 1213, 1246, 1163
543, 1252, 1246, 1213, 1169
544, 1173, 1259, 1252, 1169
545, 1117, 1055, 1173, 1169
546, 1054, 1117, 1169, 1048
547, 1048, 1169, 1166, 1041
548, 1041, 1166, 1132, 1114
549, 1041, 1114, 1150, 1034
550, 1041, 1034, 969, 931
551, 931, 969, 909, 836
552, 909, 978, 842, 836
553, 849, 842, 978, 938
554, 978, 1011, 1054, 938
555, 978, 1047, 1053, 1011
556, 1047, 1132, 1172, 1053
557, 1132, 1216, 1257, 1172
558, 1132, 1251, 1258, 1216
559, 1166, 1245, 1251, 1132
560, 1166, 1169, 1213, 1245
561, 1213, 1141, 1239, 1245
562, 1233, 1239, 1141, 1159
563, 1150, 1210, 1233, 1159
564, 1034, 1150, 1159, 1028
565, 1028, 1005, 969, 1034
566, 1005, 1027, 927, 969
567, 927, 822, 829, 969
568, 969, 829, 835, 909
569, 835, 934, 978, 909
570, 978, 934, 1040, 1047
571, 1047, 1040, 1114, 1132
572, 1040, 1162, 1150, 1114
573, 1162, 1244, 1238, 1150
574, 1238, 1232, 1210, 1150
575, 1159, 1141, 1111, 1028
576, 1029, 1111, 1141, 1035
577, 583, 553, 479, 485
578, 583, 485, 492, 514
579, 514, 491, 556, 583
580, 556, 696, 690, 583
581, 610, 583, 690, 683
582, 592, 610, 683, 549
583, 592, 549, 478, 472
584, 472, 465, 508, 592
585, 508, 466, 546, 592
586, 592, 546, 671, 677
587, 592, 677, 684, 610
588, 610, 684, 553, 583
589, 677, 737, 787, 684
590, 737, 815, 889, 787
591, 895, 889, 815, 793
592, 797, 902, 895, 793
593, 719, 697, 797, 793
594, 696, 719, 793, 690
595, 690, 793, 790, 683
596, 683, 790, 728, 716
597, 683, 716, 746, 676
598, 683, 676, 565, 549
599, 549, 565, 511, 478
600, 511, 580, 484, 478
601, 491, 484, 580, 556
602, 580, 613, 696, 556
603, 580, 689, 695, 613
604, 689, 728, 796, 695
605, 728, 818, 900, 796
606, 728, 894, 901, 818
607, 790, 888, 894, 728
608, 790, 793, 815, 888
609, 815, 737, 882, 888
610, 875, 882, 737, 783
611, 746, 812, 875, 783
612, 676, 746, 783, 670
613, 670, 607, 565, 676
614, 607, 669, 545, 565
615, 545, 464, 471, 565
616, 565, 471, 477, 511
617, 477, 552, 580, 511
618, 580, 552, 682, 689
619, 689, 682, 716, 728
620, 682, 786, 746, 716
621, 786, 887, 881, 746
622, 881, 874, 812, 746
623, 783, 737, 713, 670
624, 671, 713, 737, 677
625, 577, 539, 453, 459
626, 577, 459, 466, 508
627, 508, 465, 542, 577
628, 542, 670, 664, 577
629, 604, 577, 664, 657
630, 589, 604, 657, 535
631, 589, 535, 452, 446
632, 446, 439, 502, 589
633, 502, 440, 532, 589
634, 589, 532, 645, 651
635, 589, 651, 658, 604
636, 604, 658, 539, 577
637, 651, 734, 770, 658
638, 734, 809, 863, 770
639, 869, 863, 809, 776
640, 780, 876, 869, 776
641, 713, 671, 780, 776
642, 670, 713, 776, 664
643, 664, 776, 773, 657
644, 657, 773, 725, 710
645, 657, 710, 743, 650
646, 657, 650, 562, 535
647, 535, 562, 505, 452
648, 505, 574, 458, 452
649, 465, 458, 574, 542
650, 574, 607, 670, 542
651, 574, 663, 669, 607
652, 663, 725, 779, 669
653, 725, 812, 874, 779
654, 725, 868, 875, 812
655, 773, 862, 868, 725
656, 773, 776, 809, 862
657, 809, 734, 856, 862
658, 849, 856, 734, 766
659, 743, 806, 849, 766
660, 650, 743, 766, 644
661, 644, 601, 562, 650
662, 601, 643, 531, 562
663, 531, 438, 445, 562
664, 562, 445, 451, 505
665, 451, 538, 574, 505
666, 574, 538, 656, 663
667, 663, 656, 710, 725
668, 656, 769, 743, 710
669, 769, 861, 855, 743
670, 855, 848, 806, 743
671, 766, 734, 707, 644
672, 645, 707, 734, 651
673, 571, 525, 427, 433
674, 571, 433, 440, 502
675, 502, 439, 528, 571
676, 528, 644, 638, 571
677, 598, 571, 638, 631
678, 586, 598, 631, 521
679, 586, 521, 426, 420
680, 420, 413, 496, 586
681, 496, 414, 518, 586
682, 586, 518, 619, 625
683, 586, 625, 632, 598
684, 598, 632, 525, 571
685, 625, 731, 753, 632
686, 731, 803, 837, 753
687, 843, 837, 803, 759
688, 763, 850, 843, 759
689, 707, 645, 763, 759
690, 644, 707, 759, 638
691, 638, 759, 756, 631
692, 631, 756, 722, 704
693, 631, 704, 740, 624
694, 631, 624, 559, 521
695, 521, 559, 499, 426
696, 499, 568, 432, 426
697, 439, 432, 568, 528
698, 568, 601, 644, 528
699, 568, 637, 643, 601
700, 637, 722, 762, 643
701, 722, 806, 848, 762
702, 722, 842, 849, 806
703, 756, 836, 842, 722
704, 756, 759, 803, 836
705, 803, 731, 830, 836
706, 823, 830, 731, 749
707, 740, 800, 823, 749
708, 624, 740, 749, 618
709, 618, 595, 559, 624
710, 595, 617, 517, 559
711, 517, 412, 419, 559
712, 559, 419, 425, 499
713, 425, 524, 568, 499
714, 568, 524, 630, 637
715, 637, 630, 704, 722
716, 630, 752, 740, 704
717, 752, 835, 829, 740
718, 829, 822, 800, 740
719, 749, 731, 701, 618
720, 619, 701, 731, 625
721, 173, 143, 70, 76
722, 173, 76, 82, 104
723, 104, 81, 146, 173
724, 146, 286, 280, 173
725, 200, 173, 280, 273
726, 182, 200, 273, 139
727, 182, 139, 69, 63
728, 63, 56, 98, 182
729, 98, 57, 136, 182
730, 182, 136, 261, 267
731, 182, 267, 274, 200
732, 200, 274, 143, 173
733, 267, 327, 377, 274
734, 327, 405, 479, 377
735, 485, 479, 405, 383
736, 387, 492, 485, 383
737, 309, 287, 387, 383
738, 286, 309, 383, 280
739, 280, 383, 380, 273
740, 273, 380, 318, 306
741, 273, 306, 336, 266
742, 273, 266, 155, 139
743, 139, 155, 101, 69
744, 101, 170, 75, 69
745, 81, 75, 170, 146
746, 170, 203, 286, 146
747, 170, 279, 285, 203
748, 279, 318, 386, 285
749, 318, 408, 490, 386
750, 318, 484, 491, 408
751, 380, 478, 484, 318
752, 380, 383, 405, 478
753, 405, 327, 472, 478
754, 465, 472, 327, 373
755, 336, 402, 465, 373
756, 266, 336, 373, 260
757, 260, 197, 155, 266
758, 197, 259, 135, 155
759, 135, 55, 62, 155
760, 155, 62, 68, 101
761, 68, 142, 170, 101
762, 170, 142, 272, 279
763, 279, 272, 306, 318
764, 272, 376, 336, 306
765, 376, 477, 471, 336
766, 471, 464, 402, 336
767, 373, 327, 303, 260
768, 261, 303, 327, 267
769, 167, 129, 44, 50
770, 167, 50, 57, 98
771, 98, 56, 132, 167
772, 132, 260, 254, 167
773, 194, 167, 254, 247
774, 179, 194, 247, 125
775, 179, 125, 43, 37
776, 37, 30, 92, 179
777, 92, 31, 122, 179
778, 179, 122, 235, 241
779, 179, 241, 248, 194
780, 194, 248, 129, 167
781, 241, 324, 360, 248
782, 324, 399, 453, 360
783, 459, 453, 399, 366
784, 370, 466, 459, 366
785, 303, 261, 370, 366
786, 260, 303, 366, 254
787, 254, 366, 363, 247
788, 247, 363, 315, 300
789, 247, 300, 333, 240
790, 247, 240, 152, 125
791, 125, 152, 95, 43
792, 95, 164, 49, 43
793, 56, 49, 164, 132
794, 164, 197, 260, 132
795, 164, 253, 259, 197
796, 253, 315, 369, 259
797, 315, 402, 464, 369
798, 315, 458, 465, 402
799, 363, 452, 458, 315
800, 363, 366, 399, 452
801, 399, 324, 446, 452
802, 439, 446, 324, 356
803, 333, 396, 439, 356
804, 240, 333, 356, 234
805, 234, 191, 152, 240
806, 191, 233, 121, 152
807, 121, 29, 36, 152
808, 152, 36, 42, 95
809, 42, 128, 164, 95
810, 164, 128, 246, 253
811, 253, 246, 300, 315
812, 246, 359, 333, 300
813, 359, 451, 445, 333
814, 445, 438, 396, 333
815, 356, 324, 297, 234
816, 235, 297, 324, 241
817, 161, 115, 18, 24
818, 161, 24, 31, 92
819, 92, 30, 118, 161
820, 118, 234, 228, 161
821, 188, 161, 228, 221
822, 176, 188, 221, 111
823, 176, 111, 17, 11
824, 11, 4, 86, 176
825, 86, 5, 108, 176
826, 176, 108, 209, 215
827, 176, 215, 222, 188
828, 188, 222, 115, 161
829, 215, 321, 343, 222
830, 321, 393, 427, 343
831, 433, 427, 393, 349
832, 353, 440, 433, 349
833, 297, 235, 353, 349
834, 234, 297, 349, 228
835, 228, 349, 346, 221
836, 221, 346, 312, 294
837, 221, 294, 330, 214
838, 221, 214, 149, 111
839, 111, 149, 89, 17
840, 89, 158, 23, 17
841, 30, 23, 158, 118
842, 158, 191, 234, 118
843, 158, 227, 233, 191
844, 227, 312, 352, 233
845, 312, 396, 438, 352
846, 312, 432, 439, 396
847, 346, 426, 432, 312
848, 346, 349, 393, 426
849, 393, 321, 420, 426
850, 413, 420, 321, 339
851, 330, 390, 413, 339
852, 214, 330, 339, 208
853, 208, 185, 149, 214
854, 185, 207, 107, 149
855, 107, 3, 10, 149
856, 149, 10, 16, 89
857, 16, 114, 158, 89
858, 158, 114, 220, 227
859, 227, 220, 294, 312
860, 220, 342, 330, 294
861, 342, 425, 419, 330
862, 419, 412, 390, 330
863, 339, 321, 291, 208
864, 209, 291, 321, 215
865, 992, 962, 887, 893
866, 992, 893, 900, 923
867, 923, 899, 965, 992
868, 965, 1104, 1098, 992
869, 1019, 992, 1098, 1091
870, 1001, 1019, 1091, 958
871, 1001, 958, 886, 880
872, 880, 873, 917, 1001
873, 917, 874, 955, 1001
874, 1001, 955, 1079, 1085
875, 1001, 1085, 1092, 1019
876, 1019, 1092, 962, 992
877, 1085, 1146, 1196, 1092
878, 1146, 1224, 1296, 1196
879, 1302, 1296, 1224, 1202
880, 1206, 1309, 1302, 1202
881, 1128, 1105, 1206, 1202
882, 1104, 1128, 1202, 1098
883, 1098, 1202, 1199, 1091
884, 1091, 1199, 1137, 1125
885, 1091, 1125, 1155, 1084
886, 1091, 1084, 974, 958
887, 958, 974, 920, 886
888, 920, 989, 892, 886
889, 899, 892, 989, 965
890, 989, 1022, 1104, 965
891, 989, 1097, 1103, 1022
892, 1097, 1137, 1205, 1103
893, 1137, 1227, 1307, 1205
894, 1137, 1301, 1308, 1227
895, 1199, 1295, 1301, 1137
896, 1199, 1202, 1224, 1295
897, 1224, 1146, 1289, 1295
898, 1282, 1289, 1146, 1192
899, 1155, 1221, 1282, 1192
900, 1084, 1155, 1192, 1078
901, 1078, 1016, 974, 1084
902, 1016, 1077, 954, 974
903, 954, 872, 879, 974
904, 974, 879, 885, 920
905, 885, 961, 989, 920
906, 989, 961, 1090, 1097
907, 1097, 1090, 1125, 1137
908, 1090, 1195, 1155, 1125
909, 1195, 1294, 1288, 1155
910, 1288, 1281, 1221, 1155
911, 1192, 1146, 1122, 1078
912, 1079, 1122, 1146, 1085
913, 986, 948, 861, 867
914, 986, 867, 874, 917
915, 917, 873, 951, 986
916, 951, 1078, 1072, 986
917, 1013, 986, 1072, 1065
918, 998, 1013, 1065, 944
919, 998, 944, 860, 854
920, 854, 847, 911, 998
921, 911, 848, 941, 998
922, 998, 941, 1053, 1059
923, 998, 1059, 1066, 1013
924, 1013, 1066, 948, 986
925, 1059, 1143, 1179, 1066
926, 1143, 1218, 1270, 1179
927, 1276, 1270, 1218, 1185
928, 1189, 1283, 1276, 1185
929, 1122, 1079, 1189, 1185
930, 1078, 1122, 1185, 1072
931, 1072, 1185, 1182, 1065
932, 1065, 1182, 1134, 1119
933, 1065, 1119, 1152, 1058
934, 1065, 1058, 971, 944
935, 944, 971, 914, 860
936, 914, 983, 866, 860
937, 873, 866, 983, 951
938, 983, 1016, 1078, 951
939, 983, 1071, 1077, 1016
940, 1071, 1134, 1188, 1077
941, 1134, 1221, 1281, 1188
942, 1134, 1275, 1282, 1221
943, 1182, 1269, 1275, 1134
944, 1182, 1185, 1218, 1269
945, 1218, 1143, 1263, 1269
946, 1256, 1263, 1143, 1175
947, 1152, 1215, 1256, 1175
948, 1058, 1152, 1175, 1052
949, 1052, 1010, 971, 1058
950, 1010, 1051, 940, 971
951, 940, 846, 853, 971
952, 971, 853, 859, 914
953, 859, 947, 983, 914
954, 983, 947, 1064, 1071
955, 1071, 1064, 1119, 1134
956, 1064, 1178, 1152, 1119
957, 1178, 1268, 1262, 1152
958, 1262, 1255, 1215, 1152
959, 1175, 1143, 1116, 1052
960, 1053, 1116, 1143, 1059
961, 980, 934, 835, 841
962, 980, 841, 848, 911
963, 911, 847, 937, 980
964, 937, 1052, 1046, 980
965, 1007, 980, 1046, 1039
966, 995, 1007, 1039, 930
967, 995, 930, 834, 828
968, 828, 821, 905, 995
969, 905, 822, 927, 995
970, 995, 927, 1027, 1033
971, 995, 1033, 1040, 1007
972, 1007, 1040, 934, 980
973, 1033, 1140, 1162, 1040
974, 1140, 1212, 1244, 1162
975, 1250, 1244, 1212, 1168
976, 1172, 1257, 1250, 1168
977, 1116, 1053, 1172, 1168
978, 1052, 1116, 1168, 1046
979, 1046, 1168, 1165, 1039
980, 1039, 1165, 1131, 1113
981, 1039, 1113, 1149, 1032
982, 1039, 1032, 968, 930
983, 930, 968, 908, 834
984, 908, 977, 840, 834
985, 847, 840, 977, 937
986, 977, 1010, 1052, 937
987, 977, 1045, 1051, 1010
988, 1045, 1131, 1171, 1051
989, 1131, 1215, 1255, 1171
990, 1131, 1249, 1256, 1215
991, 1165, 1243, 1249, 1131
992, 1165, 1168, 1212, 1243
993, 1212, 1140, 1237, 1243
994, 1231, 1237, 1140, 1158
995, 1149, 1209, 1231, 1158
996, 1032, 1149, 1158, 1026
997, 1026, 1004, 968, 1032
998, 1004, 1025, 926, 968
999, 926, 820, 827, 968
1000, 968, 827, 833, 908
1001, 833, 933, 977, 908
1002, 977, 933, 1038, 1045
1003, 1045, 1038, 1113, 1131
1004, 1038, 1161, 1149, 1113
1005, 1161, 1242, 1236, 1149
1006, 1236, 1230, 1209, 1149
1007, 1158, 1140, 1110, 1026
1008, 1027, 1110, 1140, 1033
1009, 582, 552, 477, 483
1010, 582, 483, 490, 513
1011, 513, 489, 555, 582
1012, 555, 694, 688, 582
1013, 609, 582, 688, 681
1014, 591, 609, 681, 548
1015, 591, 548, 476, 470
1016, 470, 463, 507, 591
1017, 507, 464, 545, 591
1018, 591, 545, 669, 675
1019, 591, 675, 682, 609
1020, 609, 682, 552, 582
1021, 675, 736, 786, 682
1022, 736, 814, 887, 786
1023, 893, 887, 814, 792
1024, 796, 900, 893, 792
1025, 718, 695, 796, 792
1026, 694, 718, 792, 688
1027, 688, 792, 789, 681
1028, 681, 789, 727, 715
1029, 681, 715, 745, 674
1030, 681, 674, 564, 548
1031, 548, 564, 510, 476
1032, 510, 579, 482, 476
1033, 489, 482, 579, 555
1034, 579, 612, 694, 555
1035, 579, 687, 693, 612
1036, 687, 727, 795, 693
1037, 727, 817, 898, 795
1038, 727, 892, 899, 817
1039, 789, 886, 892, 727
1040, 789, 792, 814, 886
1041, 814, 736, 880, 886
1042, 873, 880, 736, 782
1043, 745, 811, 873, 782
1044, 674, 745, 782, 668
1045, 668, 606, 564, 674
1046, 606, 667, 544, 564
1047, 544, 462, 469, 564
1048, 564, 469, 475, 510
1049, 475, 551, 579, 510
1050, 579, 551, 680, 687
1051, 687, 680, 715, 727
1052, 680, 785, 745, 715
1053, 785, 885, 879, 745
1054, 879, 872, 811, 745
1055, 782, 736, 712, 668
1056, 669, 712, 736, 675
1057, 576, 538, 451, 457
1058, 576, 457, 464, 507
1059, 507, 463, 541, 576
1060, 541, 668, 662, 576
1061, 603, 576, 662, 655
1062, 588, 603, 655, 534
1063, 588, 534, 450, 444
1064, 444, 437, 501, 588
1065, 501, 438, 531, 588
1066, 588, 531, 643, 649
1067, 588, 649, 656, 603
1068, 603, 656, 538, 576
1069, 649, 733, 769, 656
1070, 733, 808, 861, 769
1071, 867, 861, 808, 775
1072, 779, 874, 867, 775
1073, 712, 669, 779, 775
1074, 668, 712, 775, 662
1075, 662, 775, 772, 655
1076, 655, 772, 724, 709
1077, 655, 709, 742, 648
1078, 655, 648, 561, 534
1079, 534, 561, 504, 450
1080, 504, 573, 456, 450
1081, 463, 456, 573, 541
1082, 573, 606, 668, 541
1083, 573, 661, 667, 606
1084, 661, 724, 778, 667
1085, 724, 811, 872, 778
1086, 724, 866, 873, 811
1087, 772, 860, 866, 724
1088, 772, 775, 808, 860
1089, 808, 733, 854, 860
1090, 847, 854, 733, 765
1091, 742, 805, 847, 765
1092, 648, 742, 765, 642
1093, 642, 600, 561, 648
1094, 600, 641, 530, 561
1095, 530, 436, 443, 561
1096, 561, 443, 449, 504
1097, 449, 537, 573, 504
1098, 573, 537, 654, 661
1099, 661, 654, 709, 724
1100, 654, 768, 742, 709
1101, 768, 859, 853, 742
1102, 853, 846, 805, 742
1103, 765, 733, 706, 642
1104, 643, 706, 733, 649
1105, 570, 524, 425, 431
1106, 570, 431, 438, 501
1107, 501, 437, 527, 570
1108, 527, 642, 636, 570
1109, 597, 570, 636, 629
1110, 585, 597, 629, 520
1111, 585, 520, 424, 418
1112, 418, 411, 495, 585
1113, 495, 412, 517, 585
1114, 585, 517, 617, 623
1115, 585, 623, 630, 597
1116, 597, 630, 524, 570
1117, 623, 730, 752, 630
1118, 730, 802, 835, 752
1119, 841, 835, 802, 758
1120, 762, 848, 841, 758
1121, 706, 643, 762, 758
1122, 642, 706, 758, 636
1123, 636, 758, 755, 629
1124, 629, 755, 721, 703
1125, 629, 703, 739, 622
1126, 629, 622, 558, 520
1127, 520, 558, 498, 424
1128, 498, 567, 430, 424
1129, 437, 430, 567, 527
1130, 567, 600, 642, 527
1131, 567, 635, 641, 600
1132, 635, 721, 761, 641
1133, 721, 805, 846, 761
1134, 721, 840, 847, 805
1135, 755, 834, 840, 721
1136, 755, 758, 802, 834
1137, 802, 730, 828, 834
1138, 821, 828, 730, 748
1139, 739, 799, 821, 748
1140, 622, 739, 748, 616
1141, 616, 594, 558, 622
1142, 594, 615, 516, 558
1143, 516, 410, 417, 558
1144, 558, 417, 423, 498
1145, 423, 523, 567, 498
1146, 567, 523, 628, 635
1147, 635, 628, 703, 721
1148, 628, 751, 739, 703
1149, 751, 833, 827, 739
1150, 827, 820, 799, 739
1151, 748, 730, 700, 616
1152, 617, 700, 730, 623
1153, 172, 142, 68, 74
1154, 172, 74, 80, 103
1155, 103, 79, 145, 172
1156, 145, 284, 278, 172
1157, 199, 172, 278, 271
1158, 181, 199, 271, 138
1159, 181, 138, 67, 61
1160, 61, 54, 97, 181
1161, 97, 55, 135, 181
1162, 181, 135, 259, 265
1163, 181, 265, 272, 199
1164, 199, 272, 142, 172
1165, 265, 326, 376, 272
1166, 326, 404, 477, 376
1167, 483, 477, 404, 382
1168, 386, 490, 483, 382
1169, 308, 285, 386, 382
1170, 284, 308, 382, 278
1171, 278, 382, 379, 271
1172, 271, 379, 317, 305
1173, 271, 305, 335, 264
1174, 271, 264, 154, 138
1175, 138, 154, 100, 67
1176, 100, 169, 73, 67
1177, 79, 73, 169, 145
1178, 169, 202, 284, 145
1179, 169, 277, 283, 202
1180, 277, 317, 385, 283
1181, 317, 407, 488, 385
1182, 317, 482, 489, 407
1183, 379, 476, 482, 317
1184, 379, 382, 404, 476
1185, 404, 326, 470, 476
1186, 463, 470, 326, 372
1187, 335, 401, 463, 372
1188, 264, 335, 372, 258
1189, 258, 196, 154, 264
1190, 196, 257, 134, 154
1191, 134, 53, 60, 154
1192, 154, 60, 66, 100
1193, 66, 141, 169, 100
1194, 169, 141, 270, 277
1195, 277, 270, 305, 317
1196, 270, 375, 335, 305
1197, 375, 475, 469, 335
1198, 469, 462, 401, 335
1199, 372, 326, 302, 258
1200, 259, 302, 326, 265
1201, 166, 128, 42, 48
1202, 166, 48, 55, 97
1203, 97, 54, 131, 166
1204, 131, 258, 252, 166
1205, 193, 166, 252, 245
1206, 178, 193, 245, 124
1207, 178, 124, 41, 35
1208, 35, 28, 91, 178
1209, 91, 29, 121, 178
1210, 178, 121, 233, 239
1211, 178, 239, 246, 193
1212, 193, 246, 128, 166
1213, 239, 323, 359, 246
1214, 323, 398, 451, 359
1215, 457, 451, 398, 365
1216, 369, 464, 457, 365
1217, 302, 259, 369, 365
1218, 258, 302, 365, 252
1219, 252, 365, 362, 245
1220, 245, 362, 314, 299
1221, 245, 299, 332, 238
1222, 245, 238, 151, 124
1223, 124, 151, 94, 41
1224, 94, 163, 47, 41
1225, 54, 47, 163, 131
1226, 163, 196, 258, 131
1227, 163, 251, 257, 196
1228, 251, 314, 368, 257
1229, 314, 401, 462, 368
1230, 314, 456, 463, 401
1231, 362, 450, 456, 314
1232, 362, 365, 398, 450
1233, 398, 323, 444, 450
1234, 437, 444, 323, 355
1235, 332, 395, 437, 355
1236, 238, 332, 355, 232
1237, 232, 190, 151, 238
1238, 190, 231, 120, 151
1239, 120, 27, 34, 151
1240, 151, 34, 40, 94
1241, 40, 127, 163, 94
1242, 163, 127, 244, 251
1243, 251, 244, 299, 314
1244, 244, 358, 332, 299
1245, 358, 449, 443, 332
1246, 443, 436, 395, 332
1247, 355, 323, 296, 232
1248, 233, 296, 323, 239
1249, 160, 114, 16, 22
1250, 160, 22, 29, 91
1251, 91, 28, 117, 160
1252, 117, 232, 226, 160
1253, 187, 160, 226, 219
1254, 175, 187, 219, 110
1255, 175, 110, 15, 9
1256, 9, 2, 85, 175
1257, 85, 3, 107, 175
1258, 175, 107, 207, 213
1259, 175, 213, 220, 187
1260, 187, 220, 114, 160
1261, 213, 320, 342, 220
1262, 320, 392, 425, 342
1263, 431, 425, 392, 348
1264, 352, 438, 431, 348
1265, 296, 233, 352, 348
1266, 232, 296, 348, 226
1267, 226, 348, 345, 219
1268, 219, 345, 311, 293
1269, 219, 293, 329, 212
1270, 219, 212, 148, 110
1271, 110, 148, 88, 15
1272, 88, 157, 21, 15
1273, 28, 21, 157, 117
1274, 157, 190, 232, 117
1275, 157, 225, 231, 190
1276, 225, 311, 351, 231
1277, 311, 395, 436, 351
1278, 311, 430, 437, 395
1279, 345, 424, 430, 311
1280, 345, 348, 392, 424
1281, 392, 320, 418, 424
1282, 411, 418, 320, 338
1283, 329, 389, 411, 338
1284, 212, 329, 338, 206
1285, 206, 184, 148, 212
1286, 184, 205, 106, 148
1287, 106, 1, 8, 148
1288, 148, 8, 14, 88
1289, 14, 113, 157, 88
1290, 157, 113, 218, 225
1291, 225, 218, 293, 311
1292, 218, 341, 329, 293
1293, 341, 423, 417, 329
1294, 417, 410, 389, 329
1295, 338, 320, 290, 206
1296, 207, 290, 320, 213
*SHELL SECTION,MATERIAL=Ms4example,ELSET=Es4example
0.5
